pair_coeff 1 9 gauss/wall -3.271600 13.7408 0.6940 25.0000
pair_coeff 1 20 gauss/wall -3.097600 11.7021 0.5874 25.0000
pair_coeff 2 2 gauss/wall -7.283700 13.4971 0.5855 25.0000
pair_coeff 2 20 gauss/wall -3.263800 14.1935 0.7563 25.0000
pair_coeff 2 25 gauss/wall -1.771300 14.6186 0.9294 25.0000
pair_coeff 3 3 gauss/wall -4.133300 16.8838 0.8285 25.0000
pair_coeff 4 4 gauss/wall -3.248100 10.0748 0.4144 25.0000
pair_coeff 4 20 gauss/wall -2.863500 12.6725 0.5625 25.0000
pair_coeff 21 24 gauss/wall -4.163600 14.2204 1.1327 25.0000
pair_coeff 22 26 gauss/wall -2.998400 12.8178 0.3644 25.0000
pair_coeff 22 30 gauss/wall -1.659100 12.3217 0.7016 25.0000
pair_coeff 22 31 gauss/wall -4.180300 16.1085 0.5606 25.0000
pair_coeff 23 23 gauss/wall -3.631400 14.7039 0.7074 25.0000
pair_coeff 23 30 gauss/wall -1.996200 16.8173 0.5999 25.0000
pair_coeff 23 31 gauss/wall -2.628400 10.5116 0.3803 25.0000
pair_coeff 23 32 gauss/wall -3.539100 10.8374 0.4027 25.0000
pair_coeff 25 25 gauss/wall -3.667800 14.7715 0.6258 25.0000
pair_coeff 25 26 gauss/wall -2.892200 14.2828 0.5180 25.0000
pair_coeff 26 26 gauss/wall -3.665200 13.1044 0.4803 25.0000
pair_coeff 27 30 gauss/wall -2.734000 13.6437 0.7305 25.0000
pair_coeff 27 31 gauss/wall -1.768700 12.0093 0.4172 25.0000
pair_coeff 27 32 gauss/wall -3.857800 17.0566 0.9099 25.0000
pair_coeff 28 31 gauss/wall -2.981600 14.3351 0.5323 25.0000
pair_coeff 34 34 gauss/wall -4.763800 10.7398 0.6978 25.0000
