   pair_coeff   1  1    soft    25.0000       8.6793   
   pair_coeff   1  2    soft    25.0000      13.1254   
   pair_coeff   1  3    soft    25.0000      15.7500   
   pair_coeff   1  4    soft    25.0000      15.7500   
   pair_coeff   1  5    soft    25.0000      15.3017   
   pair_coeff   1  6    soft    25.0000       9.7452   
   pair_coeff   1  7    soft    25.0000      15.7500   
   pair_coeff   1  8    soft    25.0000      15.1745   
   pair_coeff   1  10    soft    25.0000      15.7500   
   pair_coeff   1  11    soft    25.0000      15.7500   
   pair_coeff   1  12    soft    25.0000      15.7500   
   pair_coeff   1  13    soft    25.0000      15.7500   
   pair_coeff   1  14    soft    25.0000      15.7500   
   pair_coeff   1  15    soft    25.0000      15.7500   
   pair_coeff   1  16    soft    25.0000      15.7500   
   pair_coeff   1  17    soft    25.0000      15.7500   
   pair_coeff   1  18    soft    25.0000      15.7500   
   pair_coeff   1  19    soft    25.0000      13.5370   
   pair_coeff   1  21    soft    25.0000      15.7500   
   pair_coeff   1  22    soft    25.0000      15.7500   
   pair_coeff   1  23    soft    25.0000      15.7500   
   pair_coeff   1  24    soft    25.0000      15.7500   
   pair_coeff   1  25    soft    25.0000      15.7500   
   pair_coeff   1  26    soft    25.0000      15.7500   
   pair_coeff   1  27    soft    25.0000      15.7500   
   pair_coeff   1  28    soft    25.0000      15.7500   
   pair_coeff   1  29    soft    25.0000      15.7500   
   pair_coeff   1  30    soft    25.0000      15.7500   
   pair_coeff   1  31    soft    25.0000      15.7500   
   pair_coeff   1  32    soft    25.0000      15.7500   
   pair_coeff   1  33    soft    25.0000      15.7500   
   pair_coeff   1  34    soft    25.0000      15.7500   
   pair_coeff   1  35    soft    25.0000      15.7500   
   pair_coeff   2  3    soft    25.0000      15.7500   
   pair_coeff   2  4    soft    25.0000      15.7500   
   pair_coeff   2  5    soft    25.0000      15.7500   
   pair_coeff   2  6    soft    25.0000      15.1007   
   pair_coeff   2  7    soft    25.0000      15.7500   
   pair_coeff   2  8    soft    25.0000      15.7500   
   pair_coeff   2  9    soft    25.0000      15.7500   
   pair_coeff   2  10    soft    25.0000      15.7500   
   pair_coeff   2  11    soft    25.0000      15.7500   
   pair_coeff   2  12    soft    25.0000      15.7500   
   pair_coeff   2  13    soft    25.0000      15.7500   
   pair_coeff   2  14    soft    25.0000      15.7500   
   pair_coeff   2  15    soft    25.0000      15.7500   
   pair_coeff   2  16    soft    25.0000      15.7500   
   pair_coeff   2  17    soft    25.0000      15.7500   
   pair_coeff   2  18    soft    25.0000      15.7500   
   pair_coeff   2  19    soft    25.0000      15.7500   
   pair_coeff   2  21    soft    25.0000      14.7541   
   pair_coeff   2  22    soft    25.0000      15.7500   
   pair_coeff   2  23    soft    25.0000      15.7500   
   pair_coeff   2  24    soft    25.0000      15.7500   
   pair_coeff   2  26    soft    25.0000      15.7500   
   pair_coeff   2  27    soft    25.0000      15.7500   
   pair_coeff   2  28    soft    25.0000      15.7500   
   pair_coeff   2  29    soft    25.0000      15.7500   
   pair_coeff   2  30    soft    25.0000      15.7500   
   pair_coeff   2  31    soft    25.0000      15.7500   
   pair_coeff   2  32    soft    25.0000      15.7500   
   pair_coeff   2  33    soft    25.0000      15.7500   
   pair_coeff   2  34    soft    25.0000      15.7500   
   pair_coeff   2  35    soft    25.0000      15.7500   
   pair_coeff   3  4    soft    25.0000      14.0751   
   pair_coeff   3  5    soft    25.0000      15.7500   
   pair_coeff   3  6    soft    25.0000      15.7500   
   pair_coeff   3  7    soft    25.0000      15.7500   
   pair_coeff   3  8    soft    25.0000      15.7500   
   pair_coeff   3  9    soft    25.0000      15.7500   
   pair_coeff   3  10    soft    25.0000      15.7500   
   pair_coeff   3  11    soft    25.0000      15.7500   
   pair_coeff   3  12    soft    25.0000      15.7500   
   pair_coeff   3  13    soft    25.0000      15.7500   
   pair_coeff   3  14    soft    25.0000      15.7500   
   pair_coeff   3  15    soft    25.0000      15.7500   
   pair_coeff   3  16    soft    25.0000      15.7500   
   pair_coeff   3  17    soft    25.0000      15.7500   
   pair_coeff   3  18    soft    25.0000      15.7500   
   pair_coeff   3  19    soft    25.0000      15.7500   
   pair_coeff   3  20    soft    25.0000      14.8996   
   pair_coeff   3  21    soft    25.0000      15.4055   
   pair_coeff   3  22    soft    25.0000      15.7500   
   pair_coeff   3  23    soft    25.0000      15.7500   
   pair_coeff   3  24    soft    25.0000      15.7500   
   pair_coeff   3  25    soft    25.0000      15.7500   
   pair_coeff   3  26    soft    25.0000      15.7500   
   pair_coeff   3  27    soft    25.0000      15.7500   
   pair_coeff   3  28    soft    25.0000      15.7500   
   pair_coeff   3  29    soft    25.0000      15.7500   
   pair_coeff   3  30    soft    25.0000      15.7500   
   pair_coeff   3  31    soft    25.0000      15.7500   
   pair_coeff   3  32    soft    25.0000      15.7500   
   pair_coeff   3  33    soft    25.0000      15.7500   
   pair_coeff   3  34    soft    25.0000      15.7500   
   pair_coeff   3  35    soft    25.0000      15.7500   
   pair_coeff   4  5    soft    25.0000      15.7500   
   pair_coeff   4  6    soft    25.0000      15.7500   
   pair_coeff   4  7    soft    25.0000      15.7500   
   pair_coeff   4  8    soft    25.0000      15.7500   
   pair_coeff   4  9    soft    25.0000      15.7500   
   pair_coeff   4  10    soft    25.0000      15.7500   
   pair_coeff   4  11    soft    25.0000      15.7500   
   pair_coeff   4  12    soft    25.0000      15.7500   
   pair_coeff   4  13    soft    25.0000      15.7500   
   pair_coeff   4  14    soft    25.0000      15.7500   
   pair_coeff   4  15    soft    25.0000      15.7500   
   pair_coeff   4  16    soft    25.0000      15.7500   
   pair_coeff   4  17    soft    25.0000      15.7500   
   pair_coeff   4  18    soft    25.0000      15.7500   
   pair_coeff   4  19    soft    25.0000      11.8236   
   pair_coeff   4  21    soft    25.0000      15.7500   
   pair_coeff   4  22    soft    25.0000      15.7500   
   pair_coeff   4  23    soft    25.0000      15.7500   
   pair_coeff   4  24    soft    25.0000      15.7500   
   pair_coeff   4  25    soft    25.0000      15.7500   
   pair_coeff   4  26    soft    25.0000      15.7500   
   pair_coeff   4  27    soft    25.0000      15.7500   
   pair_coeff   4  28    soft    25.0000      15.7500   
   pair_coeff   4  29    soft    25.0000      15.7500   
   pair_coeff   4  30    soft    25.0000      15.7500   
   pair_coeff   4  31    soft    25.0000      15.7500   
   pair_coeff   4  32    soft    25.0000      15.7500   
   pair_coeff   4  33    soft    25.0000      15.7500   
   pair_coeff   4  34    soft    25.0000      15.7500   
   pair_coeff   4  35    soft    25.0000      15.7500   
   pair_coeff   5  5    soft    25.0000      15.7500   
   pair_coeff   5  6    soft    25.0000      15.7500   
   pair_coeff   5  7    soft    25.0000      15.7500   
   pair_coeff   5  8    soft    25.0000      15.7500   
   pair_coeff   5  9    soft    25.0000      13.7499   
   pair_coeff   5  10    soft    25.0000      15.7500   
   pair_coeff   5  11    soft    25.0000      15.7500   
   pair_coeff   5  12    soft    25.0000      15.7500   
   pair_coeff   5  13    soft    25.0000      15.7500   
   pair_coeff   5  14    soft    25.0000      15.7500   
   pair_coeff   5  15    soft    25.0000      15.7500   
   pair_coeff   5  16    soft    25.0000      15.7500   
   pair_coeff   5  17    soft    25.0000      15.7500   
   pair_coeff   5  18    soft    25.0000      15.7500   
   pair_coeff   5  19    soft    25.0000      14.8973   
   pair_coeff   5  20    soft    25.0000      15.7500   
   pair_coeff   5  21    soft    25.0000      15.7500   
   pair_coeff   5  22    soft    25.0000      15.7500   
   pair_coeff   5  23    soft    25.0000      15.7500   
   pair_coeff   5  24    soft    25.0000      15.7500   
   pair_coeff   5  25    soft    25.0000      15.7500   
   pair_coeff   5  26    soft    25.0000      15.7500   
   pair_coeff   5  27    soft    25.0000      15.7500   
   pair_coeff   5  28    soft    25.0000      15.7500   
   pair_coeff   5  29    soft    25.0000      15.7500   
   pair_coeff   5  30    soft    25.0000      15.7500   
   pair_coeff   5  31    soft    25.0000      15.7500   
   pair_coeff   5  32    soft    25.0000      15.7500   
   pair_coeff   5  33    soft    25.0000      15.7500   
   pair_coeff   5  34    soft    25.0000      15.7500   
   pair_coeff   5  35    soft    25.0000      15.7500   
   pair_coeff   6  6    soft    25.0000      15.7500   
   pair_coeff   6  7    soft    25.0000      15.7500   
   pair_coeff   6  8    soft    25.0000      15.4225   
   pair_coeff   6  9    soft    25.0000      11.5329   
   pair_coeff   6  10    soft    25.0000      15.7500   
   pair_coeff   6  11    soft    25.0000      15.7500   
   pair_coeff   6  12    soft    25.0000      15.7500   
   pair_coeff   6  13    soft    25.0000      15.7500   
   pair_coeff   6  14    soft    25.0000      15.7500   
   pair_coeff   6  15    soft    25.0000      15.7500   
   pair_coeff   6  16    soft    25.0000      15.7500   
   pair_coeff   6  17    soft    25.0000      15.7500   
   pair_coeff   6  18    soft    25.0000      15.7500   
   pair_coeff   6  19    soft    25.0000      15.7500   
   pair_coeff   6  20    soft    25.0000      15.7500   
   pair_coeff   6  21    soft    25.0000      15.7500   
   pair_coeff   6  22    soft    25.0000      15.7500   
   pair_coeff   6  23    soft    25.0000      15.7500   
   pair_coeff   6  24    soft    25.0000      15.7500   
   pair_coeff   6  25    soft    25.0000      15.7500   
   pair_coeff   6  26    soft    25.0000      15.7500   
   pair_coeff   6  27    soft    25.0000      15.7500   
   pair_coeff   6  28    soft    25.0000      15.7500   
   pair_coeff   6  29    soft    25.0000      15.7500   
   pair_coeff   6  30    soft    25.0000      15.7500   
   pair_coeff   6  31    soft    25.0000      15.7500   
   pair_coeff   6  32    soft    25.0000      15.7500   
   pair_coeff   6  33    soft    25.0000      15.7500   
   pair_coeff   6  34    soft    25.0000      15.7500   
   pair_coeff   6  35    soft    25.0000      15.7500   
   pair_coeff   7  7    soft    25.0000      15.7500   
   pair_coeff   7  8    soft    25.0000      15.4611   
   pair_coeff   7  9    soft    25.0000      15.7500   
   pair_coeff   7  10    soft    25.0000      15.7500   
   pair_coeff   7  11    soft    25.0000      15.7500   
   pair_coeff   7  12    soft    25.0000      15.7500   
   pair_coeff   7  13    soft    25.0000      15.7500   
   pair_coeff   7  14    soft    25.0000      15.7500   
   pair_coeff   7  15    soft    25.0000      15.7500   
   pair_coeff   7  16    soft    25.0000      15.7500   
   pair_coeff   7  17    soft    25.0000      15.7500   
   pair_coeff   7  18    soft    25.0000      15.7500   
   pair_coeff   7  19    soft    25.0000      15.7500   
   pair_coeff   7  20    soft    25.0000      15.7500   
   pair_coeff   7  21    soft    25.0000      15.7500   
   pair_coeff   7  22    soft    25.0000      15.7500   
   pair_coeff   7  23    soft    25.0000      15.7500   
   pair_coeff   7  24    soft    25.0000      15.7500   
   pair_coeff   7  25    soft    25.0000      15.7500   
   pair_coeff   7  26    soft    25.0000      15.7500   
   pair_coeff   7  27    soft    25.0000      15.7500   
   pair_coeff   7  28    soft    25.0000      15.7500   
   pair_coeff   7  29    soft    25.0000      15.7500   
   pair_coeff   7  30    soft    25.0000      15.7500   
   pair_coeff   7  31    soft    25.0000      15.7500   
   pair_coeff   7  32    soft    25.0000      15.7500   
   pair_coeff   7  33    soft    25.0000      15.7500   
   pair_coeff   7  34    soft    25.0000      15.7500   
   pair_coeff   7  35    soft    25.0000      15.7500   
   pair_coeff   8  8    soft    25.0000      15.7500   
   pair_coeff   8  9    soft    25.0000      15.7500   
   pair_coeff   8  10    soft    25.0000      15.7500   
   pair_coeff   8  11    soft    25.0000      15.7500   
   pair_coeff   8  12    soft    25.0000      15.7500   
   pair_coeff   8  13    soft    25.0000      15.7500   
   pair_coeff   8  14    soft    25.0000      15.7500   
   pair_coeff   8  15    soft    25.0000      15.7500   
   pair_coeff   8  16    soft    25.0000      15.7500   
   pair_coeff   8  17    soft    25.0000      15.7500   
   pair_coeff   8  18    soft    25.0000      15.7500   
   pair_coeff   8  19    soft    25.0000      15.7500   
   pair_coeff   8  20    soft    25.0000      15.7500   
   pair_coeff   8  21    soft    25.0000      15.7500   
   pair_coeff   8  22    soft    25.0000      15.7500   
   pair_coeff   8  23    soft    25.0000      15.7500   
   pair_coeff   8  24    soft    25.0000      15.7500   
   pair_coeff   8  25    soft    25.0000      15.7500   
   pair_coeff   8  26    soft    25.0000      15.7500   
   pair_coeff   8  27    soft    25.0000      15.7500   
   pair_coeff   8  28    soft    25.0000      15.7500   
   pair_coeff   8  29    soft    25.0000      15.7500   
   pair_coeff   8  30    soft    25.0000      15.7500   
   pair_coeff   8  31    soft    25.0000      15.7500   
   pair_coeff   8  32    soft    25.0000      15.7500   
   pair_coeff   8  33    soft    25.0000      15.7500   
   pair_coeff   8  34    soft    25.0000      15.7500   
   pair_coeff   8  35    soft    25.0000      15.7500   
   pair_coeff   9  9    soft    25.0000      15.7500   
   pair_coeff   9  10    soft    25.0000      15.7500   
   pair_coeff   9  11    soft    25.0000      15.7500   
   pair_coeff   9  12    soft    25.0000      15.7500   
   pair_coeff   9  13    soft    25.0000      15.7500   
   pair_coeff   9  14    soft    25.0000      15.7500   
   pair_coeff   9  15    soft    25.0000      13.7451   
   pair_coeff   9  16    soft    25.0000      10.3352   
   pair_coeff   9  17    soft    25.0000      15.7500   
   pair_coeff   9  18    soft    25.0000      15.7500   
   pair_coeff   9  19    soft    25.0000      15.7500   
   pair_coeff   9  20    soft    25.0000      15.7500   
   pair_coeff   9  21    soft    25.0000      15.7500   
   pair_coeff   9  22    soft    25.0000      15.7500   
   pair_coeff   9  23    soft    25.0000      15.7500   
   pair_coeff   9  24    soft    25.0000      15.7500   
   pair_coeff   9  25    soft    25.0000      15.7500   
   pair_coeff   9  26    soft    25.0000      15.7500   
   pair_coeff   9  27    soft    25.0000      15.7500   
   pair_coeff   9  28    soft    25.0000      15.7500   
   pair_coeff   9  29    soft    25.0000      15.7500   
   pair_coeff   9  30    soft    25.0000      15.7500   
   pair_coeff   9  31    soft    25.0000      15.7500   
   pair_coeff   9  32    soft    25.0000      15.7500   
   pair_coeff   9  33    soft    25.0000      15.7500   
   pair_coeff   9  34    soft    25.0000      15.7500   
   pair_coeff   9  35    soft    25.0000      15.7500   
   pair_coeff   10  10    soft    25.0000      15.7500   
   pair_coeff   10  11    soft    25.0000      15.7500   
   pair_coeff   10  12    soft    25.0000      15.7500   
   pair_coeff   10  13    soft    25.0000      15.7500   
   pair_coeff   10  14    soft    25.0000      15.7500   
   pair_coeff   10  15    soft    25.0000      14.7858   
   pair_coeff   10  16    soft    25.0000       8.8196   
   pair_coeff   10  17    soft    25.0000      13.5213   
   pair_coeff   10  18    soft    25.0000      15.7500   
   pair_coeff   10  19    soft    25.0000      15.7500   
   pair_coeff   10  20    soft    25.0000      15.7500   
   pair_coeff   10  21    soft    25.0000      15.7500   
   pair_coeff   10  22    soft    25.0000      15.7500   
   pair_coeff   10  23    soft    25.0000      15.7500   
   pair_coeff   10  24    soft    25.0000      15.7500   
   pair_coeff   10  25    soft    25.0000      15.7500   
   pair_coeff   10  26    soft    25.0000      15.7500   
   pair_coeff   10  27    soft    25.0000      15.7500   
   pair_coeff   10  28    soft    25.0000      15.7500   
   pair_coeff   10  29    soft    25.0000      15.7500   
   pair_coeff   10  30    soft    25.0000      15.7500   
   pair_coeff   10  31    soft    25.0000      15.7500   
   pair_coeff   10  32    soft    25.0000      15.7500   
   pair_coeff   10  33    soft    25.0000      15.7500   
   pair_coeff   10  34    soft    25.0000      15.7500   
   pair_coeff   10  35    soft    25.0000      15.7500   
   pair_coeff   11  11    soft    25.0000      15.7500   
   pair_coeff   11  12    soft    25.0000      15.7500   
   pair_coeff   11  13    soft    25.0000      15.7500   
   pair_coeff   11  14    soft    25.0000      15.7500   
   pair_coeff   11  15    soft    25.0000      15.7500   
   pair_coeff   11  16    soft    25.0000      15.6491   
   pair_coeff   11  17    soft    25.0000      15.7500   
   pair_coeff   11  18    soft    25.0000      15.7500   
   pair_coeff   11  19    soft    25.0000      15.7500   
   pair_coeff   11  20    soft    25.0000      15.7500   
   pair_coeff   11  21    soft    25.0000      15.7500   
   pair_coeff   11  22    soft    25.0000      15.7500   
   pair_coeff   11  23    soft    25.0000      15.7500   
   pair_coeff   11  24    soft    25.0000      15.7500   
   pair_coeff   11  25    soft    25.0000      15.7500   
   pair_coeff   11  26    soft    25.0000      15.7500   
   pair_coeff   11  27    soft    25.0000      15.7500   
   pair_coeff   11  28    soft    25.0000      15.7500   
   pair_coeff   11  29    soft    25.0000      15.7500   
   pair_coeff   11  30    soft    25.0000      15.7500   
   pair_coeff   11  31    soft    25.0000      15.7500   
   pair_coeff   11  32    soft    25.0000      15.7500   
   pair_coeff   11  33    soft    25.0000      15.7500   
   pair_coeff   11  34    soft    25.0000      15.7500   
   pair_coeff   11  35    soft    25.0000      15.7500   
   pair_coeff   12  12    soft    25.0000      15.7500   
   pair_coeff   12  13    soft    25.0000      15.7500   
   pair_coeff   12  14    soft    25.0000      15.7500   
   pair_coeff   12  15    soft    25.0000      15.7500   
   pair_coeff   12  16    soft    25.0000      15.7500   
   pair_coeff   12  17    soft    25.0000      15.7500   
   pair_coeff   12  18    soft    25.0000      15.7500   
   pair_coeff   12  19    soft    25.0000      15.7500   
   pair_coeff   12  20    soft    25.0000      15.7500   
   pair_coeff   12  21    soft    25.0000      15.7500   
   pair_coeff   12  22    soft    25.0000      15.7500   
   pair_coeff   12  23    soft    25.0000      15.7500   
   pair_coeff   12  24    soft    25.0000      15.7500   
   pair_coeff   12  25    soft    25.0000      15.7500   
   pair_coeff   12  26    soft    25.0000      15.7500   
   pair_coeff   12  27    soft    25.0000      15.7500   
   pair_coeff   12  28    soft    25.0000      15.7500   
   pair_coeff   12  29    soft    25.0000      15.7500   
   pair_coeff   12  30    soft    25.0000      15.7500   
   pair_coeff   12  31    soft    25.0000      15.7500   
   pair_coeff   12  32    soft    25.0000      15.7500   
   pair_coeff   12  33    soft    25.0000      15.7500   
   pair_coeff   12  34    soft    25.0000      15.7500   
   pair_coeff   12  35    soft    25.0000      15.7500   
   pair_coeff   13  13    soft    25.0000      15.7500   
   pair_coeff   13  14    soft    25.0000      15.7500   
   pair_coeff   13  15    soft    25.0000      15.7500   
   pair_coeff   13  16    soft    25.0000      14.9009   
   pair_coeff   13  17    soft    25.0000      15.7500   
   pair_coeff   13  18    soft    25.0000      15.7500   
   pair_coeff   13  19    soft    25.0000      15.7500   
   pair_coeff   13  20    soft    25.0000      15.7500   
   pair_coeff   13  21    soft    25.0000      15.7500   
   pair_coeff   13  22    soft    25.0000      15.7500   
   pair_coeff   13  23    soft    25.0000      15.7500   
   pair_coeff   13  24    soft    25.0000      15.7500   
   pair_coeff   13  25    soft    25.0000      15.7500   
   pair_coeff   13  26    soft    25.0000      15.7500   
   pair_coeff   13  27    soft    25.0000      15.7500   
   pair_coeff   13  28    soft    25.0000      15.7500   
   pair_coeff   13  29    soft    25.0000      15.7500   
   pair_coeff   13  30    soft    25.0000      15.7500   
   pair_coeff   13  31    soft    25.0000      15.7500   
   pair_coeff   13  32    soft    25.0000      15.7500   
   pair_coeff   13  33    soft    25.0000      15.7500   
   pair_coeff   13  34    soft    25.0000      15.7500   
   pair_coeff   13  35    soft    25.0000      15.7500   
   pair_coeff   14  14    soft    25.0000      15.7500   
   pair_coeff   14  15    soft    25.0000      15.7500   
   pair_coeff   14  16    soft    25.0000      15.1596   
   pair_coeff   14  17    soft    25.0000      15.7500   
   pair_coeff   14  18    soft    25.0000      15.7500   
   pair_coeff   14  19    soft    25.0000      15.7500   
   pair_coeff   14  20    soft    25.0000      15.7500   
   pair_coeff   14  21    soft    25.0000      15.7500   
   pair_coeff   14  22    soft    25.0000      15.7500   
   pair_coeff   14  23    soft    25.0000      15.7500   
   pair_coeff   14  24    soft    25.0000      15.7500   
   pair_coeff   14  25    soft    25.0000      15.7500   
   pair_coeff   14  26    soft    25.0000      15.7500   
   pair_coeff   14  27    soft    25.0000      15.7500   
   pair_coeff   14  28    soft    25.0000      15.7500   
   pair_coeff   14  29    soft    25.0000      15.7500   
   pair_coeff   14  30    soft    25.0000      15.7500   
   pair_coeff   14  31    soft    25.0000      15.7500   
   pair_coeff   14  32    soft    25.0000      15.7500   
   pair_coeff   14  33    soft    25.0000      15.7500   
   pair_coeff   14  34    soft    25.0000      15.7500   
   pair_coeff   14  35    soft    25.0000      15.7500   
   pair_coeff   15  15    soft    25.0000      15.7500   
   pair_coeff   15  16    soft    25.0000      15.7500   
   pair_coeff   15  17    soft    25.0000      15.7500   
   pair_coeff   15  18    soft    25.0000      15.7500   
   pair_coeff   15  19    soft    25.0000      15.7500   
   pair_coeff   15  20    soft    25.0000      15.7500   
   pair_coeff   15  21    soft    25.0000      15.7500   
   pair_coeff   15  22    soft    25.0000      15.7500   
   pair_coeff   15  23    soft    25.0000      15.7500   
   pair_coeff   15  24    soft    25.0000      15.7500   
   pair_coeff   15  25    soft    25.0000      15.7500   
   pair_coeff   15  26    soft    25.0000      15.7500   
   pair_coeff   15  27    soft    25.0000      15.7500   
   pair_coeff   15  28    soft    25.0000      15.7500   
   pair_coeff   15  29    soft    25.0000      15.7500   
   pair_coeff   15  30    soft    25.0000      15.7500   
   pair_coeff   15  31    soft    25.0000      15.7500   
   pair_coeff   15  32    soft    25.0000      15.7500   
   pair_coeff   15  33    soft    25.0000      15.7500   
   pair_coeff   15  34    soft    25.0000      15.7500   
   pair_coeff   15  35    soft    25.0000      15.7500   
   pair_coeff   16  16    soft    25.0000      15.7500   
   pair_coeff   16  17    soft    25.0000      15.7500   
   pair_coeff   16  18    soft    25.0000      15.7500   
   pair_coeff   16  19    soft    25.0000      15.7500   
   pair_coeff   16  20    soft    25.0000      15.7500   
   pair_coeff   16  21    soft    25.0000      15.7500   
   pair_coeff   16  22    soft    25.0000      15.7500   
   pair_coeff   16  23    soft    25.0000      15.7500   
   pair_coeff   16  24    soft    25.0000      15.7500   
   pair_coeff   16  25    soft    25.0000      15.7500   
   pair_coeff   16  26    soft    25.0000      15.7500   
   pair_coeff   16  27    soft    25.0000      15.7500   
   pair_coeff   16  28    soft    25.0000      15.7500   
   pair_coeff   16  29    soft    25.0000      15.7500   
   pair_coeff   16  30    soft    25.0000      15.7500   
   pair_coeff   16  31    soft    25.0000      15.7500   
   pair_coeff   16  32    soft    25.0000      15.7500   
   pair_coeff   16  33    soft    25.0000      15.7500   
   pair_coeff   16  34    soft    25.0000      15.7500   
   pair_coeff   16  35    soft    25.0000      15.7500   
   pair_coeff   17  17    soft    25.0000      15.7500   
   pair_coeff   17  18    soft    25.0000      13.4801   
   pair_coeff   17  19    soft    25.0000      15.7500   
   pair_coeff   17  20    soft    25.0000      15.7500   
   pair_coeff   17  21    soft    25.0000      15.7500   
   pair_coeff   17  22    soft    25.0000      15.7500   
   pair_coeff   17  23    soft    25.0000      15.7500   
   pair_coeff   17  24    soft    25.0000      15.7500   
   pair_coeff   17  25    soft    25.0000      15.7500   
   pair_coeff   17  26    soft    25.0000      15.7500   
   pair_coeff   17  27    soft    25.0000      15.7500   
   pair_coeff   17  28    soft    25.0000      15.7500   
   pair_coeff   17  29    soft    25.0000      15.7500   
   pair_coeff   17  30    soft    25.0000      15.7500   
   pair_coeff   17  31    soft    25.0000      15.7500   
   pair_coeff   17  32    soft    25.0000      15.7500   
   pair_coeff   17  33    soft    25.0000      15.7500   
   pair_coeff   17  34    soft    25.0000      15.7500   
   pair_coeff   17  35    soft    25.0000      15.7500   
   pair_coeff   18  18    soft    25.0000      11.2953   
   pair_coeff   18  19    soft    25.0000      15.7500   
   pair_coeff   18  20    soft    25.0000      15.7500   
   pair_coeff   18  21    soft    25.0000      15.7500   
   pair_coeff   18  22    soft    25.0000      15.7500   
   pair_coeff   18  23    soft    25.0000      15.7500   
   pair_coeff   18  24    soft    25.0000      15.7500   
   pair_coeff   18  25    soft    25.0000      15.7500   
   pair_coeff   18  26    soft    25.0000      15.7500   
   pair_coeff   18  27    soft    25.0000      15.7500   
   pair_coeff   18  28    soft    25.0000      15.7500   
   pair_coeff   18  29    soft    25.0000      15.7500   
   pair_coeff   18  30    soft    25.0000      15.7500   
   pair_coeff   18  31    soft    25.0000      15.7500   
   pair_coeff   18  32    soft    25.0000      15.7500   
   pair_coeff   18  33    soft    25.0000      15.7500   
   pair_coeff   18  34    soft    25.0000      15.7500   
   pair_coeff   18  35    soft    25.0000      15.7500   
   pair_coeff   19  19    soft    25.0000      15.7500   
   pair_coeff   19  20    soft    25.0000      15.7500   
   pair_coeff   19  21    soft    25.0000      15.7500   
   pair_coeff   19  22    soft    25.0000      15.7500   
   pair_coeff   19  23    soft    25.0000      15.7500   
   pair_coeff   19  24    soft    25.0000      15.7500   
   pair_coeff   19  25    soft    25.0000      15.7500   
   pair_coeff   19  26    soft    25.0000      15.7500   
   pair_coeff   19  27    soft    25.0000      15.7500   
   pair_coeff   19  28    soft    25.0000      15.7500   
   pair_coeff   19  29    soft    25.0000      15.7500   
   pair_coeff   19  30    soft    25.0000      15.7500   
   pair_coeff   19  31    soft    25.0000      15.7500   
   pair_coeff   19  32    soft    25.0000      15.7500   
   pair_coeff   19  33    soft    25.0000      15.7500   
   pair_coeff   19  34    soft    25.0000      15.7500   
   pair_coeff   19  35    soft    25.0000      15.7500   
   pair_coeff   20  20    soft    25.0000      15.7500   
   pair_coeff   20  21    soft    25.0000      15.7500   
   pair_coeff   20  22    soft    25.0000      15.7500   
   pair_coeff   20  23    soft    25.0000      15.7500   
   pair_coeff   20  24    soft    25.0000      15.7500   
   pair_coeff   20  25    soft    25.0000      15.7500   
   pair_coeff   20  26    soft    25.0000      15.7500   
   pair_coeff   20  27    soft    25.0000      15.7500   
   pair_coeff   20  28    soft    25.0000      15.7500   
   pair_coeff   20  29    soft    25.0000      15.7500   
   pair_coeff   20  30    soft    25.0000      15.7500   
   pair_coeff   20  31    soft    25.0000      15.7500   
   pair_coeff   20  32    soft    25.0000      15.7500   
   pair_coeff   20  33    soft    25.0000      15.7500   
   pair_coeff   20  34    soft    25.0000      15.7500   
   pair_coeff   20  35    soft    25.0000      15.7500   
   pair_coeff   21  21    soft    25.0000      15.7500   
   pair_coeff   21  22    soft    25.0000      15.7500   
   pair_coeff   21  23    soft    25.0000      15.7500   
   pair_coeff   21  25    soft    25.0000      11.0999   
   pair_coeff   21  26    soft    25.0000      15.7500   
   pair_coeff   21  27    soft    25.0000      15.7500   
   pair_coeff   21  28    soft    25.0000      15.7500   
   pair_coeff   21  29    soft    25.0000      15.7500   
   pair_coeff   21  30    soft    25.0000      15.7500   
   pair_coeff   21  31    soft    25.0000      15.7500   
   pair_coeff   21  32    soft    25.0000      15.7500   
   pair_coeff   21  33    soft    25.0000      15.7500   
   pair_coeff   21  34    soft    25.0000      15.7500   
   pair_coeff   21  35    soft    25.0000      15.7500   
   pair_coeff   22  22    soft    25.0000      15.7500   
   pair_coeff   22  23    soft    25.0000      15.7500   
   pair_coeff   22  24    soft    25.0000      12.7606   
   pair_coeff   22  25    soft    25.0000      15.7500   
   pair_coeff   22  27    soft    25.0000      15.7500   
   pair_coeff   22  28    soft    25.0000      15.7500   