    units      	   real      
    atom_style     full      
    pair_style     hybrid/overlay soft 25.0 gauss/wall 25.0 coul/debye 0.1274 40.0
    bond_style     harmonic
    neighbor  	   5.0 bin
    neigh_modify   every 1 delay 1 check yes
    boundary 	   p p p
    processors 	   * * *
    special_bonds  lj 0.0 1.0 1.0 coul 0.0 0.0 0.0
    dielectric 	   17.5

