pair_coeff   1   1   soft   25.00000   20.000000
pair_coeff   1   2   soft   25.00000   20.000000
pair_coeff   1   3   soft   25.00000   20.000000
pair_coeff   1   4   soft   25.00000   20.000000
pair_coeff   1   5   soft   25.00000   20.000000
pair_coeff   1   6   soft   25.00000   20.000000
pair_coeff   1   7   soft   25.00000   20.000000
pair_coeff   1   8   soft   25.00000   20.000000
pair_coeff   1   9   soft   25.00000   20.000000
pair_coeff   1   10   soft   25.00000   20.000000
pair_coeff   1   11   soft   25.00000   20.000000
pair_coeff   1   12   soft   25.00000   20.000000
pair_coeff   1   13   soft   25.00000   20.000000
pair_coeff   1   14   soft   25.00000   20.000000
pair_coeff   1   15   soft   25.00000   20.000000
pair_coeff   1   16   soft   25.00000   20.000000
pair_coeff   1   17   soft   25.00000   20.000000
pair_coeff   1   18   soft   25.00000   20.000000
pair_coeff   1   19   soft   25.00000   20.000000
pair_coeff   1   20   soft   25.00000   20.000000
pair_coeff   1   21   soft   25.00000   20.000000
pair_coeff   1   22   soft   25.00000   20.000000
pair_coeff   1   23   soft   25.00000   20.000000
pair_coeff   1   24   soft   25.00000   20.000000
pair_coeff   1   25   soft   25.00000   20.000000
pair_coeff   1   26   soft   25.00000   20.000000
pair_coeff   1   27   soft   25.00000   20.000000
pair_coeff   1   28   soft   25.00000   20.000000
pair_coeff   1   29   soft   25.00000   20.000000
pair_coeff   1   30   soft   25.00000   20.000000
pair_coeff   1   31   soft   25.00000   20.000000
pair_coeff   1   32   soft   25.00000   20.000000
pair_coeff   1   33   soft   25.00000   20.000000
pair_coeff   1   34   soft   25.00000   20.000000
pair_coeff   1   35   soft   25.00000   20.000000
pair_coeff   1   36   soft   25.00000   20.000000
pair_coeff   1   37   soft   25.00000   20.000000
pair_coeff   1   38   soft   25.00000   20.000000
pair_coeff   1   39   soft   25.00000   20.000000
pair_coeff   1   40   soft   25.00000   20.000000
pair_coeff   1   41   soft   25.00000   20.000000
pair_coeff   1   42   soft   25.00000   20.000000
pair_coeff   1   43   soft   25.00000   20.000000
pair_coeff   1   44   soft   25.00000   20.000000
pair_coeff   1   45   soft   25.00000   18.125000
pair_coeff   1   46   soft   25.00000   15.775000
pair_coeff   1   47   soft   25.00000   19.025000
pair_coeff   1   48   soft   25.00000   20.000000
pair_coeff   1   49   soft   25.00000   20.000000
pair_coeff   1   50   soft   25.00000   20.000000
pair_coeff   1   51   soft   25.00000   20.000000
pair_coeff   1   52   soft   25.00000   20.000000
pair_coeff   1   53   soft   25.00000   20.000000
pair_coeff   1   54   soft   25.00000   20.000000
pair_coeff   1   55   soft   25.00000   20.000000
pair_coeff   1   56   soft   25.00000   20.000000
pair_coeff   1   57   soft   25.00000   20.000000
pair_coeff   1   58   soft   25.00000   20.000000
pair_coeff   1   59   soft   25.00000   20.000000
pair_coeff   1   60   soft   25.00000   20.000000
pair_coeff   1   61   soft   25.00000   20.000000
pair_coeff   1   62   soft   25.00000   20.000000
pair_coeff   1   63   soft   25.00000   20.000000
pair_coeff   1   64   soft   25.00000   20.000000
pair_coeff   1   65   soft   25.00000   20.000000
pair_coeff   1   66   soft   25.00000   20.000000
pair_coeff   1   67   soft   25.00000   20.000000
pair_coeff   1   68   soft   25.00000   20.000000
pair_coeff   1   69   soft   25.00000   20.000000
pair_coeff   1   70   soft   25.00000   20.000000
pair_coeff   1   71   soft   25.00000   20.000000
pair_coeff   1   72   soft   25.00000   20.000000
pair_coeff   1   73   soft   25.00000   20.000000
pair_coeff   1   74   soft   25.00000   13.025000
pair_coeff   1   75   soft   25.00000   17.975000
pair_coeff   1   76   soft   25.00000   20.000000
pair_coeff   1   77   soft   25.00000   20.000000
pair_coeff   1   78   soft   25.00000   20.000000
pair_coeff   1   79   soft   25.00000   20.000000
pair_coeff   1   80   soft   25.00000   20.000000
pair_coeff   1   81   soft   25.00000   20.000000
pair_coeff   1   82   soft   25.00000   20.000000
pair_coeff   1   83   soft   25.00000   20.000000
pair_coeff   1   84   soft   25.00000   20.000000
pair_coeff   1   85   soft   25.00000   20.000000
pair_coeff   1   86   soft   25.00000   20.000000
pair_coeff   1   87   soft   25.00000   20.000000
pair_coeff   1   88   soft   25.00000   20.000000
pair_coeff   1   89   soft   25.00000   20.000000
pair_coeff   1   90   soft   25.00000   20.000000
pair_coeff   1   91   soft   25.00000   20.000000
pair_coeff   1   92   soft   25.00000   20.000000
pair_coeff   1   93   soft   25.00000   20.000000
pair_coeff   1   94   soft   25.00000   20.000000
pair_coeff   1   95   soft   25.00000   20.000000
pair_coeff   1   96   soft   25.00000   20.000000
pair_coeff   1   97   soft   25.00000   20.000000
pair_coeff   1   98   soft   25.00000   20.000000
pair_coeff   1   99   soft   25.00000   20.000000
pair_coeff   1   100   soft   25.00000   20.000000
pair_coeff   1   101   soft   25.00000   20.000000
pair_coeff   1   102   soft   25.00000   20.000000
pair_coeff   1   103   soft   25.00000   20.000000
pair_coeff   1   104   soft   25.00000   20.000000
pair_coeff   1   105   soft   25.00000   20.000000
pair_coeff   1   106   soft   25.00000   20.000000
pair_coeff   1   107   soft   25.00000   20.000000
pair_coeff   1   108   soft   25.00000   20.000000
pair_coeff   1   109   soft   25.00000   20.000000
pair_coeff   1   110   soft   25.00000   20.000000
pair_coeff   1   111   soft   25.00000   20.000000
pair_coeff   1   112   soft   25.00000   20.000000
pair_coeff   1   113   soft   25.00000   20.000000
pair_coeff   1   114   soft   25.00000   20.000000
pair_coeff   1   115   soft   25.00000   20.000000
pair_coeff   1   116   soft   25.00000   20.000000
pair_coeff   1   117   soft   25.00000   20.000000
pair_coeff   1   118   soft   25.00000   20.000000
pair_coeff   1   119   soft   25.00000   20.000000
pair_coeff   1   120   soft   25.00000   20.000000
pair_coeff   1   121   soft   25.00000   20.000000
pair_coeff   1   122   soft   25.00000   20.000000
pair_coeff   1   123   soft   25.00000   20.000000
pair_coeff   1   124   soft   25.00000   20.000000
pair_coeff   1   125   soft   25.00000   20.000000
pair_coeff   1   126   soft   25.00000   20.000000
pair_coeff   1   127   soft   25.00000   20.000000
pair_coeff   1   128   soft   25.00000   20.000000
pair_coeff   1   129   soft   25.00000   20.000000
pair_coeff   1   130   soft   25.00000   20.000000
pair_coeff   1   131   soft   25.00000   20.000000
pair_coeff   1   132   soft   25.00000   20.000000
pair_coeff   2   2   soft   25.00000   20.000000
pair_coeff   2   3   soft   25.00000   20.000000
pair_coeff   2   4   soft   25.00000   20.000000
pair_coeff   2   5   soft   25.00000   20.000000
pair_coeff   2   6   soft   25.00000   20.000000
pair_coeff   2   7   soft   25.00000   20.000000
pair_coeff   2   8   soft   25.00000   20.000000
pair_coeff   2   9   soft   25.00000   20.000000
pair_coeff   2   10   soft   25.00000   20.000000
pair_coeff   2   11   soft   25.00000   20.000000
pair_coeff   2   12   soft   25.00000   20.000000
pair_coeff   2   13   soft   25.00000   20.000000
pair_coeff   2   14   soft   25.00000   20.000000
pair_coeff   2   15   soft   25.00000   20.000000
pair_coeff   2   16   soft   25.00000   20.000000
pair_coeff   2   17   soft   25.00000   20.000000
pair_coeff   2   18   soft   25.00000   20.000000
pair_coeff   2   19   soft   25.00000   20.000000
pair_coeff   2   20   soft   25.00000   20.000000
pair_coeff   2   21   soft   25.00000   20.000000
pair_coeff   2   22   soft   25.00000   20.000000
pair_coeff   2   23   soft   25.00000   20.000000
pair_coeff   2   24   soft   25.00000   20.000000
pair_coeff   2   25   soft   25.00000   20.000000
pair_coeff   2   26   soft   25.00000   20.000000
pair_coeff   2   27   soft   25.00000   20.000000
pair_coeff   2   28   soft   25.00000   20.000000
pair_coeff   2   29   soft   25.00000   20.000000
pair_coeff   2   30   soft   25.00000   20.000000
pair_coeff   2   31   soft   25.00000   20.000000
pair_coeff   2   32   soft   25.00000   20.000000
pair_coeff   2   33   soft   25.00000   20.000000
pair_coeff   2   34   soft   25.00000   20.000000
pair_coeff   2   35   soft   25.00000   20.000000
pair_coeff   2   36   soft   25.00000   20.000000
pair_coeff   2   37   soft   25.00000   20.000000
pair_coeff   2   38   soft   25.00000   20.000000
pair_coeff   2   39   soft   25.00000   20.000000
pair_coeff   2   40   soft   25.00000   20.000000
pair_coeff   2   41   soft   25.00000   20.000000
pair_coeff   2   42   soft   25.00000   20.000000
pair_coeff   2   43   soft   25.00000   20.000000
pair_coeff   2   44   soft   25.00000   20.000000
pair_coeff   2   45   soft   25.00000   20.000000
pair_coeff   2   46   soft   25.00000   20.000000
pair_coeff   2   47   soft   25.00000   20.000000
pair_coeff   2   48   soft   25.00000   20.000000
pair_coeff   2   49   soft   25.00000   20.000000
pair_coeff   2   50   soft   25.00000   20.000000
pair_coeff   2   51   soft   25.00000   20.000000
pair_coeff   2   52   soft   25.00000   20.000000
pair_coeff   2   53   soft   25.00000   20.000000
pair_coeff   2   54   soft   25.00000   20.000000
pair_coeff   2   55   soft   25.00000   20.000000
pair_coeff   2   56   soft   25.00000   20.000000
pair_coeff   2   57   soft   25.00000   20.000000
pair_coeff   2   58   soft   25.00000   20.000000
pair_coeff   2   59   soft   25.00000   20.000000
pair_coeff   2   60   soft   25.00000   20.000000
pair_coeff   2   61   soft   25.00000   20.000000
pair_coeff   2   62   soft   25.00000   20.000000
pair_coeff   2   63   soft   25.00000   20.000000
pair_coeff   2   64   soft   25.00000   20.000000
pair_coeff   2   65   soft   25.00000   20.000000
pair_coeff   2   66   soft   25.00000   20.000000
pair_coeff   2   67   soft   25.00000   20.000000
pair_coeff   2   68   soft   25.00000   20.000000
pair_coeff   2   69   soft   25.00000   20.000000
pair_coeff   2   70   soft   25.00000   20.000000
pair_coeff   2   71   soft   25.00000   20.000000
pair_coeff   2   72   soft   25.00000   20.000000
pair_coeff   2   73   soft   25.00000   20.000000
pair_coeff   2   74   soft   25.00000   16.175000
pair_coeff   2   75   soft   25.00000   20.000000
pair_coeff   2   76   soft   25.00000   20.000000
pair_coeff   2   77   soft   25.00000   20.000000
pair_coeff   2   78   soft   25.00000   20.000000
pair_coeff   2   79   soft   25.00000   20.000000
pair_coeff   2   80   soft   25.00000   20.000000
pair_coeff   2   81   soft   25.00000   20.000000
pair_coeff   2   82   soft   25.00000   20.000000
pair_coeff   2   83   soft   25.00000   20.000000
pair_coeff   2   84   soft   25.00000   20.000000
pair_coeff   2   85   soft   25.00000   20.000000
pair_coeff   2   86   soft   25.00000   20.000000
pair_coeff   2   87   soft   25.00000   20.000000
pair_coeff   2   88   soft   25.00000   20.000000
pair_coeff   2   89   soft   25.00000   20.000000
pair_coeff   2   90   soft   25.00000   20.000000
pair_coeff   2   91   soft   25.00000   20.000000
pair_coeff   2   92   soft   25.00000   20.000000
pair_coeff   2   93   soft   25.00000   20.000000
pair_coeff   2   94   soft   25.00000   20.000000
pair_coeff   2   95   soft   25.00000   20.000000
pair_coeff   2   96   soft   25.00000   20.000000
pair_coeff   2   97   soft   25.00000   20.000000
pair_coeff   2   98   soft   25.00000   20.000000
pair_coeff   2   99   soft   25.00000   20.000000
pair_coeff   2   100   soft   25.00000   20.000000
pair_coeff   2   101   soft   25.00000   20.000000
pair_coeff   2   102   soft   25.00000   20.000000
pair_coeff   2   103   soft   25.00000   20.000000
pair_coeff   2   104   soft   25.00000   20.000000
pair_coeff   2   105   soft   25.00000   20.000000
pair_coeff   2   106   soft   25.00000   20.000000
pair_coeff   2   107   soft   25.00000   20.000000
pair_coeff   2   108   soft   25.00000   20.000000
pair_coeff   2   109   soft   25.00000   20.000000
pair_coeff   2   110   soft   25.00000   20.000000
pair_coeff   2   111   soft   25.00000   20.000000
pair_coeff   2   112   soft   25.00000   20.000000
pair_coeff   2   113   soft   25.00000   20.000000
pair_coeff   2   114   soft   25.00000   20.000000
pair_coeff   2   115   soft   25.00000   20.000000
pair_coeff   2   116   soft   25.00000   20.000000
pair_coeff   2   117   soft   25.00000   20.000000
pair_coeff   2   118   soft   25.00000   20.000000
pair_coeff   2   119   soft   25.00000   20.000000
pair_coeff   2   120   soft   25.00000   20.000000
pair_coeff   2   121   soft   25.00000   20.000000
pair_coeff   2   122   soft   25.00000   20.000000
pair_coeff   2   123   soft   25.00000   20.000000
pair_coeff   2   124   soft   25.00000   20.000000
pair_coeff   2   125   soft   25.00000   20.000000
pair_coeff   2   126   soft   25.00000   20.000000
pair_coeff   2   127   soft   25.00000   20.000000
pair_coeff   2   128   soft   25.00000   20.000000
pair_coeff   2   129   soft   25.00000   20.000000
pair_coeff   2   130   soft   25.00000   20.000000
pair_coeff   2   131   soft   25.00000   20.000000
pair_coeff   2   132   soft   25.00000   20.000000
pair_coeff   3   3   soft   25.00000   20.000000
pair_coeff   3   4   soft   25.00000   20.000000
pair_coeff   3   5   soft   25.00000   20.000000
pair_coeff   3   6   soft   25.00000   20.000000
pair_coeff   3   7   soft   25.00000   20.000000
pair_coeff   3   8   soft   25.00000   20.000000
pair_coeff   3   9   soft   25.00000   20.000000
pair_coeff   3   10   soft   25.00000   20.000000
pair_coeff   3   11   soft   25.00000   20.000000
pair_coeff   3   12   soft   25.00000   20.000000
pair_coeff   3   13   soft   25.00000   20.000000
pair_coeff   3   14   soft   25.00000   20.000000
pair_coeff   3   15   soft   25.00000   20.000000
pair_coeff   3   16   soft   25.00000   20.000000
pair_coeff   3   17   soft   25.00000   20.000000
pair_coeff   3   18   soft   25.00000   20.000000
pair_coeff   3   19   soft   25.00000   20.000000
pair_coeff   3   20   soft   25.00000   20.000000
pair_coeff   3   21   soft   25.00000   20.000000
pair_coeff   3   22   soft   25.00000   20.000000
pair_coeff   3   23   soft   25.00000   20.000000
pair_coeff   3   24   soft   25.00000   20.000000
pair_coeff   3   25   soft   25.00000   20.000000
pair_coeff   3   26   soft   25.00000   20.000000
pair_coeff   3   27   soft   25.00000   20.000000
pair_coeff   3   28   soft   25.00000   20.000000
pair_coeff   3   29   soft   25.00000   20.000000
pair_coeff   3   30   soft   25.00000   20.000000
pair_coeff   3   31   soft   25.00000   20.000000
pair_coeff   3   32   soft   25.00000   20.000000
pair_coeff   3   33   soft   25.00000   20.000000
pair_coeff   3   34   soft   25.00000   20.000000
pair_coeff   3   35   soft   25.00000   20.000000
pair_coeff   3   36   soft   25.00000   20.000000
pair_coeff   3   37   soft   25.00000   20.000000
pair_coeff   3   38   soft   25.00000   20.000000
pair_coeff   3   39   soft   25.00000   20.000000
pair_coeff   3   40   soft   25.00000   20.000000
pair_coeff   3   41   soft   25.00000   20.000000
pair_coeff   3   42   soft   25.00000   20.000000
pair_coeff   3   43   soft   25.00000   20.000000
pair_coeff   3   44   soft   25.00000   20.000000
pair_coeff   3   45   soft   25.00000   20.000000
pair_coeff   3   46   soft   25.00000   20.000000
pair_coeff   3   47   soft   25.00000   20.000000
pair_coeff   3   48   soft   25.00000   20.000000
pair_coeff   3   49   soft   25.00000   20.000000
pair_coeff   3   50   soft   25.00000   20.000000
pair_coeff   3   51   soft   25.00000   20.000000
pair_coeff   3   52   soft   25.00000   20.000000
pair_coeff   3   53   soft   25.00000   20.000000
pair_coeff   3   54   soft   25.00000   20.000000
pair_coeff   3   55   soft   25.00000   20.000000
pair_coeff   3   56   soft   25.00000   20.000000
pair_coeff   3   57   soft   25.00000   20.000000
pair_coeff   3   58   soft   25.00000   20.000000
pair_coeff   3   59   soft   25.00000   20.000000
pair_coeff   3   60   soft   25.00000   20.000000
pair_coeff   3   61   soft   25.00000   20.000000
pair_coeff   3   62   soft   25.00000   20.000000
pair_coeff   3   63   soft   25.00000   20.000000
pair_coeff   3   64   soft   25.00000   20.000000
pair_coeff   3   65   soft   25.00000   20.000000
pair_coeff   3   66   soft   25.00000   20.000000
pair_coeff   3   67   soft   25.00000   20.000000
pair_coeff   3   68   soft   25.00000   20.000000
pair_coeff   3   69   soft   25.00000   20.000000
pair_coeff   3   70   soft   25.00000   20.000000
pair_coeff   3   71   soft   25.00000   20.000000
pair_coeff   3   72   soft   25.00000   20.000000
pair_coeff   3   73   soft   25.00000   20.000000
pair_coeff   3   74   soft   25.00000   18.125000
pair_coeff   3   75   soft   25.00000   20.000000
pair_coeff   3   76   soft   25.00000   20.000000
pair_coeff   3   77   soft   25.00000   20.000000
pair_coeff   3   78   soft   25.00000   20.000000
pair_coeff   3   79   soft   25.00000   20.000000
pair_coeff   3   80   soft   25.00000   20.000000
pair_coeff   3   81   soft   25.00000   20.000000
pair_coeff   3   82   soft   25.00000   20.000000
pair_coeff   3   83   soft   25.00000   20.000000
pair_coeff   3   84   soft   25.00000   20.000000
pair_coeff   3   85   soft   25.00000   20.000000
pair_coeff   3   86   soft   25.00000   20.000000
pair_coeff   3   87   soft   25.00000   20.000000
pair_coeff   3   88   soft   25.00000   20.000000
pair_coeff   3   89   soft   25.00000   20.000000
pair_coeff   3   90   soft   25.00000   20.000000
pair_coeff   3   91   soft   25.00000   20.000000
pair_coeff   3   92   soft   25.00000   20.000000
pair_coeff   3   93   soft   25.00000   20.000000
pair_coeff   3   94   soft   25.00000   20.000000
pair_coeff   3   95   soft   25.00000   20.000000
pair_coeff   3   96   soft   25.00000   20.000000
pair_coeff   3   97   soft   25.00000   20.000000
pair_coeff   3   98   soft   25.00000   20.000000
pair_coeff   3   99   soft   25.00000   20.000000
pair_coeff   3   100   soft   25.00000   20.000000
pair_coeff   3   101   soft   25.00000   20.000000
pair_coeff   3   102   soft   25.00000   20.000000
pair_coeff   3   103   soft   25.00000   20.000000
pair_coeff   3   104   soft   25.00000   20.000000
pair_coeff   3   105   soft   25.00000   20.000000
pair_coeff   3   106   soft   25.00000   20.000000
pair_coeff   3   107   soft   25.00000   20.000000
pair_coeff   3   108   soft   25.00000   20.000000
pair_coeff   3   109   soft   25.00000   20.000000
pair_coeff   3   110   soft   25.00000   20.000000
pair_coeff   3   111   soft   25.00000   20.000000
pair_coeff   3   112   soft   25.00000   20.000000
pair_coeff   3   113   soft   25.00000   20.000000
pair_coeff   3   114   soft   25.00000   20.000000
pair_coeff   3   115   soft   25.00000   20.000000
pair_coeff   3   116   soft   25.00000   20.000000
pair_coeff   3   117   soft   25.00000   20.000000
pair_coeff   3   118   soft   25.00000   20.000000
pair_coeff   3   119   soft   25.00000   20.000000
pair_coeff   3   120   soft   25.00000   20.000000
pair_coeff   3   121   soft   25.00000   20.000000
pair_coeff   3   122   soft   25.00000   20.000000
pair_coeff   3   123   soft   25.00000   20.000000
pair_coeff   3   124   soft   25.00000   20.000000
pair_coeff   3   125   soft   25.00000   20.000000
pair_coeff   3   126   soft   25.00000   20.000000
pair_coeff   3   127   soft   25.00000   20.000000
pair_coeff   3   128   soft   25.00000   20.000000
pair_coeff   3   129   soft   25.00000   20.000000
pair_coeff   3   130   soft   25.00000   20.000000
pair_coeff   3   131   soft   25.00000   20.000000
pair_coeff   3   132   soft   25.00000   20.000000
pair_coeff   4   4   soft   25.00000   20.000000
pair_coeff   4   5   soft   25.00000   20.000000
pair_coeff   4   6   soft   25.00000   20.000000
pair_coeff   4   7   soft   25.00000   20.000000
pair_coeff   4   8   soft   25.00000   20.000000
pair_coeff   4   9   soft   25.00000   20.000000
pair_coeff   4   10   soft   25.00000   20.000000
pair_coeff   4   11   soft   25.00000   20.000000
pair_coeff   4   12   soft   25.00000   20.000000
pair_coeff   4   13   soft   25.00000   20.000000
pair_coeff   4   14   soft   25.00000   20.000000
pair_coeff   4   15   soft   25.00000   20.000000
pair_coeff   4   16   soft   25.00000   20.000000
pair_coeff   4   17   soft   25.00000   20.000000
pair_coeff   4   18   soft   25.00000   20.000000
pair_coeff   4   19   soft   25.00000   20.000000
pair_coeff   4   20   soft   25.00000   20.000000
pair_coeff   4   21   soft   25.00000   20.000000
pair_coeff   4   22   soft   25.00000   20.000000
pair_coeff   4   23   soft   25.00000   20.000000
pair_coeff   4   24   soft   25.00000   20.000000
pair_coeff   4   25   soft   25.00000   20.000000
pair_coeff   4   26   soft   25.00000   20.000000
pair_coeff   4   27   soft   25.00000   20.000000
pair_coeff   4   28   soft   25.00000   20.000000
pair_coeff   4   29   soft   25.00000   20.000000
pair_coeff   4   30   soft   25.00000   20.000000
pair_coeff   4   31   soft   25.00000   20.000000
pair_coeff   4   32   soft   25.00000   20.000000
pair_coeff   4   33   soft   25.00000   20.000000
pair_coeff   4   34   soft   25.00000   20.000000
pair_coeff   4   35   soft   25.00000   20.000000
pair_coeff   4   36   soft   25.00000   20.000000
pair_coeff   4   37   soft   25.00000   20.000000
pair_coeff   4   38   soft   25.00000   20.000000
pair_coeff   4   39   soft   25.00000   20.000000
pair_coeff   4   40   soft   25.00000   20.000000
pair_coeff   4   41   soft   25.00000   20.000000
pair_coeff   4   42   soft   25.00000   20.000000
pair_coeff   4   43   soft   25.00000   20.000000
pair_coeff   4   44   soft   25.00000   20.000000
pair_coeff   4   45   soft   25.00000   20.000000
pair_coeff   4   46   soft   25.00000   20.000000
pair_coeff   4   47   soft   25.00000   20.000000
pair_coeff   4   48   soft   25.00000   20.000000
pair_coeff   4   49   soft   25.00000   20.000000
pair_coeff   4   50   soft   25.00000   20.000000
pair_coeff   4   51   soft   25.00000   20.000000
pair_coeff   4   52   soft   25.00000   20.000000
pair_coeff   4   53   soft   25.00000   20.000000
pair_coeff   4   54   soft   25.00000   20.000000
pair_coeff   4   55   soft   25.00000   20.000000
pair_coeff   4   56   soft   25.00000   20.000000
pair_coeff   4   57   soft   25.00000   20.000000
pair_coeff   4   58   soft   25.00000   20.000000
pair_coeff   4   59   soft   25.00000   20.000000
pair_coeff   4   60   soft   25.00000   20.000000
pair_coeff   4   61   soft   25.00000   20.000000
pair_coeff   4   62   soft   25.00000   20.000000
pair_coeff   4   63   soft   25.00000   20.000000
pair_coeff   4   64   soft   25.00000   20.000000
pair_coeff   4   65   soft   25.00000   20.000000
pair_coeff   4   66   soft   25.00000   20.000000
pair_coeff   4   67   soft   25.00000   20.000000
pair_coeff   4   68   soft   25.00000   20.000000
pair_coeff   4   69   soft   25.00000   20.000000
pair_coeff   4   70   soft   25.00000   20.000000
pair_coeff   4   71   soft   25.00000   20.000000
pair_coeff   4   72   soft   25.00000   20.000000
pair_coeff   4   73   soft   25.00000   20.000000
pair_coeff   4   74   soft   25.00000   13.225000
pair_coeff   4   75   soft   25.00000   20.000000
pair_coeff   4   76   soft   25.00000   20.000000
pair_coeff   4   77   soft   25.00000   20.000000
pair_coeff   4   78   soft   25.00000   20.000000
pair_coeff   4   79   soft   25.00000   20.000000
pair_coeff   4   80   soft   25.00000   20.000000
pair_coeff   4   81   soft   25.00000   20.000000
pair_coeff   4   82   soft   25.00000   20.000000
pair_coeff   4   83   soft   25.00000   20.000000
pair_coeff   4   84   soft   25.00000   20.000000
pair_coeff   4   85   soft   25.00000   20.000000
pair_coeff   4   86   soft   25.00000   20.000000
pair_coeff   4   87   soft   25.00000   20.000000
pair_coeff   4   88   soft   25.00000   20.000000
pair_coeff   4   89   soft   25.00000   20.000000
pair_coeff   4   90   soft   25.00000   20.000000
pair_coeff   4   91   soft   25.00000   20.000000
pair_coeff   4   92   soft   25.00000   20.000000
pair_coeff   4   93   soft   25.00000   20.000000
pair_coeff   4   94   soft   25.00000   20.000000
pair_coeff   4   95   soft   25.00000   20.000000
pair_coeff   4   96   soft   25.00000   20.000000
pair_coeff   4   97   soft   25.00000   20.000000
pair_coeff   4   98   soft   25.00000   20.000000
pair_coeff   4   99   soft   25.00000   20.000000
pair_coeff   4   100   soft   25.00000   20.000000
pair_coeff   4   101   soft   25.00000   20.000000
pair_coeff   4   102   soft   25.00000   20.000000
pair_coeff   4   103   soft   25.00000   20.000000
pair_coeff   4   104   soft   25.00000   20.000000
pair_coeff   4   105   soft   25.00000   20.000000
pair_coeff   4   106   soft   25.00000   20.000000
pair_coeff   4   107   soft   25.00000   20.000000
pair_coeff   4   108   soft   25.00000   20.000000
pair_coeff   4   109   soft   25.00000   20.000000
pair_coeff   4   110   soft   25.00000   20.000000
pair_coeff   4   111   soft   25.00000   20.000000
pair_coeff   4   112   soft   25.00000   20.000000
pair_coeff   4   113   soft   25.00000   20.000000
pair_coeff   4   114   soft   25.00000   20.000000
pair_coeff   4   115   soft   25.00000   20.000000
pair_coeff   4   116   soft   25.00000   20.000000
pair_coeff   4   117   soft   25.00000   20.000000
pair_coeff   4   118   soft   25.00000   20.000000
pair_coeff   4   119   soft   25.00000   20.000000
pair_coeff   4   120   soft   25.00000   20.000000
pair_coeff   4   121   soft   25.00000   20.000000
pair_coeff   4   122   soft   25.00000   20.000000
pair_coeff   4   123   soft   25.00000   20.000000
pair_coeff   4   124   soft   25.00000   20.000000
pair_coeff   4   125   soft   25.00000   20.000000
pair_coeff   4   126   soft   25.00000   20.000000
pair_coeff   4   127   soft   25.00000   20.000000
pair_coeff   4   128   soft   25.00000   20.000000
pair_coeff   4   129   soft   25.00000   20.000000
pair_coeff   4   130   soft   25.00000   20.000000
pair_coeff   4   131   soft   25.00000   20.000000
pair_coeff   4   132   soft   25.00000   20.000000
pair_coeff   5   5   soft   25.00000   20.000000
pair_coeff   5   6   soft   25.00000   20.000000
pair_coeff   5   7   soft   25.00000   20.000000
pair_coeff   5   8   soft   25.00000   20.000000
pair_coeff   5   9   soft   25.00000   20.000000
pair_coeff   5   10   soft   25.00000   20.000000
pair_coeff   5   11   soft   25.00000   20.000000
pair_coeff   5   12   soft   25.00000   20.000000
pair_coeff   5   13   soft   25.00000   20.000000
pair_coeff   5   14   soft   25.00000   20.000000
pair_coeff   5   15   soft   25.00000   20.000000
pair_coeff   5   16   soft   25.00000   20.000000
pair_coeff   5   17   soft   25.00000   20.000000
pair_coeff   5   18   soft   25.00000   20.000000
pair_coeff   5   19   soft   25.00000   20.000000
pair_coeff   5   20   soft   25.00000   20.000000
pair_coeff   5   21   soft   25.00000   20.000000
pair_coeff   5   22   soft   25.00000   20.000000
pair_coeff   5   23   soft   25.00000   20.000000
pair_coeff   5   24   soft   25.00000   20.000000
pair_coeff   5   25   soft   25.00000   20.000000
pair_coeff   5   26   soft   25.00000   20.000000
pair_coeff   5   27   soft   25.00000   20.000000
pair_coeff   5   28   soft   25.00000   20.000000
pair_coeff   5   29   soft   25.00000   20.000000
pair_coeff   5   30   soft   25.00000   20.000000
pair_coeff   5   31   soft   25.00000   20.000000
pair_coeff   5   32   soft   25.00000   20.000000
pair_coeff   5   33   soft   25.00000   20.000000
pair_coeff   5   34   soft   25.00000   20.000000
pair_coeff   5   35   soft   25.00000   20.000000
pair_coeff   5   36   soft   25.00000   20.000000
pair_coeff   5   37   soft   25.00000   20.000000
pair_coeff   5   38   soft   25.00000   20.000000
pair_coeff   5   39   soft   25.00000   20.000000
pair_coeff   5   40   soft   25.00000   20.000000
pair_coeff   5   41   soft   25.00000   20.000000
pair_coeff   5   42   soft   25.00000   20.000000
pair_coeff   5   43   soft   25.00000   20.000000
pair_coeff   5   44   soft   25.00000   20.000000
pair_coeff   5   45   soft   25.00000   20.000000
pair_coeff   5   46   soft   25.00000   20.000000
pair_coeff   5   47   soft   25.00000   20.000000
pair_coeff   5   48   soft   25.00000   20.000000
pair_coeff   5   49   soft   25.00000   20.000000
pair_coeff   5   50   soft   25.00000   19.825000
pair_coeff   5   51   soft   25.00000   20.000000
pair_coeff   5   52   soft   25.00000   12.225000
pair_coeff   5   53   soft   25.00000   18.175000
pair_coeff   5   54   soft   25.00000   20.000000
pair_coeff   5   55   soft   25.00000   20.000000
pair_coeff   5   56   soft   25.00000   20.000000
pair_coeff   5   57   soft   25.00000   20.000000
pair_coeff   5   58   soft   25.00000   20.000000
pair_coeff   5   59   soft   25.00000   20.000000
pair_coeff   5   60   soft   25.00000   20.000000
pair_coeff   5   61   soft   25.00000   20.000000
pair_coeff   5   62   soft   25.00000   20.000000
pair_coeff   5   63   soft   25.00000   20.000000
pair_coeff   5   64   soft   25.00000   20.000000
pair_coeff   5   65   soft   25.00000   20.000000
pair_coeff   5   66   soft   25.00000   20.000000
pair_coeff   5   67   soft   25.00000   20.000000
pair_coeff   5   68   soft   25.00000   20.000000
pair_coeff   5   69   soft   25.00000   17.675000
pair_coeff   5   70   soft   25.00000   20.000000
pair_coeff   5   71   soft   25.00000   20.000000
pair_coeff   5   72   soft   25.00000   20.000000
pair_coeff   5   73   soft   25.00000   20.000000
pair_coeff   5   74   soft   25.00000   20.000000
pair_coeff   5   75   soft   25.00000   20.000000
pair_coeff   5   76   soft   25.00000   20.000000
pair_coeff   5   77   soft   25.00000   20.000000
pair_coeff   5   78   soft   25.00000   20.000000
pair_coeff   5   79   soft   25.00000   20.000000
pair_coeff   5   80   soft   25.00000   19.025000