
   bond_coeff   1595        ${BOND_K}  ${BOND_R}
   bond_coeff   1596        ${BOND_K}  ${BOND_R}

   angle_coeff   1        ${BEND_K}  180.0
   angle_coeff   2        ${BEND_K}  180.0

   pair_coeff   210  210     john4    ${A_HH}    ${R_HH}   0.0   ${R_HH}
   pair_coeff   210  211     john4    ${A}    ${R}   0.0   ${R}
   pair_coeff   210  212     john4    ${A}    ${R}   0.0   ${R}
   pair_coeff   211  211     john4    ${A}    ${R}   ${B}   ${RC}
   pair_coeff   211  212     john4    ${A}    ${R}   0.0   ${R}
   pair_coeff   212  212     john4    ${A}    ${R}   ${B}   ${RC}


   ###### S/ACE2 
   pair_coeff  1*132    133*209   soft    25.000 10.000  


   ###### S/LIPID 
   pair_coeff  1*115    210*212   soft    25.000 12.000
   pair_coeff  121*132  210*212   soft    25.000 12.000

   pair_coeff  116     210 	 john4 ${A_HH}    ${R_HH}   0.0   ${R_HH}
   pair_coeff  116     211 	 john4 ${A}    ${R}   0.0   ${R}
   pair_coeff  116     212 	 john4 ${A}    ${R}   0.0   ${R}
   pair_coeff  117*119 210 	 john4 ${A}    ${R}   0.0   ${R}
   pair_coeff  117*119 211 	 john4 ${A}    ${R}   ${B}   ${RC}
   pair_coeff  117*119 212 	 john4 ${A}    ${R}   ${B}   ${RC}
   pair_coeff  120     210 	 john4 ${A_HH}    ${R_HH}   0.0   ${R_HH}
   pair_coeff  120     211 	 john4 ${A}    ${R}   0.0   ${R}
   pair_coeff  120     212 	 john4 ${A}    ${R}   0.0   ${R}


   ###### ACE2/LIPID
   pair_coeff   133*197   210*212    soft    25.0000   12.0000
   pair_coeff   203*209   210*212    soft    25.0000   12.0000

   pair_coeff   198  210     john4    ${A_HH}    ${R_HH}   0.0   ${R_HH}
   pair_coeff   198  211     john4    ${A}    ${R}   0.0   ${R}
   pair_coeff   198  212     john4    ${A}    ${R}   0.0   ${R}

   pair_coeff   199*201  210     john4    ${A}    ${R}   0.0   ${R}
   pair_coeff   199*201  211     john4    ${A}    ${R}   ${B}   ${RC}
   pair_coeff   199*201  212     john4    ${A}    ${R}   ${B}   ${RC}

   pair_coeff   202  210     john4    ${A_HH}    ${R_HH}   0.0   ${R_HH}
   pair_coeff   202  211     john4    ${A}    ${R}   0.0   ${R}
   pair_coeff   202  212     john4    ${A}    ${R}   0.0   ${R}
