pair_coeff 1 36 soft 25.0000 8.6793
pair_coeff 36 36 soft 25.0000 8.6793
pair_coeff 1 37 soft 25.0000 13.1254
pair_coeff 2 36 soft 25.0000 13.1254
pair_coeff 36 37 soft 25.0000 13.1254
pair_coeff 1 38 soft 25.0000 15.7500
pair_coeff 3 36 soft 25.0000 15.7500
pair_coeff 36 38 soft 25.0000 15.7500
pair_coeff 1 39 soft 25.0000 15.7500
pair_coeff 4 36 soft 25.0000 15.7500
pair_coeff 36 39 soft 25.0000 15.7500
pair_coeff 1 40 soft 25.0000 15.3017
pair_coeff 5 36 soft 25.0000 15.3017
pair_coeff 36 40 soft 25.0000 15.3017
pair_coeff 1 41 soft 25.0000 9.7452
pair_coeff 6 36 soft 25.0000 9.7452
pair_coeff 36 41 soft 25.0000 9.7452
pair_coeff 1 42 soft 25.0000 15.7500
pair_coeff 7 36 soft 25.0000 15.7500
pair_coeff 36 42 soft 25.0000 15.7500
pair_coeff 1 43 soft 25.0000 15.1745
pair_coeff 8 36 soft 25.0000 15.1745
pair_coeff 36 43 soft 25.0000 15.1745
pair_coeff 1 45 soft 25.0000 15.7500
pair_coeff 10 36 soft 25.0000 15.7500
pair_coeff 36 45 soft 25.0000 15.7500
pair_coeff 1 46 soft 25.0000 15.7500
pair_coeff 11 36 soft 25.0000 15.7500
pair_coeff 36 46 soft 25.0000 15.7500
pair_coeff 1 47 soft 25.0000 15.7500
pair_coeff 12 36 soft 25.0000 15.7500
pair_coeff 36 47 soft 25.0000 15.7500
pair_coeff 1 48 soft 25.0000 15.7500
pair_coeff 13 36 soft 25.0000 15.7500
pair_coeff 36 48 soft 25.0000 15.7500
pair_coeff 1 49 soft 25.0000 15.7500
pair_coeff 14 36 soft 25.0000 15.7500
pair_coeff 36 49 soft 25.0000 15.7500
pair_coeff 1 50 soft 25.0000 15.7500
pair_coeff 15 36 soft 25.0000 15.7500
pair_coeff 36 50 soft 25.0000 15.7500
pair_coeff 1 51 soft 25.0000 15.7500
pair_coeff 16 36 soft 25.0000 15.7500
pair_coeff 36 51 soft 25.0000 15.7500
pair_coeff 1 52 soft 25.0000 15.7500
pair_coeff 17 36 soft 25.0000 15.7500
pair_coeff 36 52 soft 25.0000 15.7500
pair_coeff 1 53 soft 25.0000 15.7500
pair_coeff 18 36 soft 25.0000 15.7500
pair_coeff 36 53 soft 25.0000 15.7500
pair_coeff 1 54 soft 25.0000 13.5370
pair_coeff 19 36 soft 25.0000 13.5370
pair_coeff 36 54 soft 25.0000 13.5370
pair_coeff 1 56 soft 25.0000 15.7500
pair_coeff 21 36 soft 25.0000 15.7500
pair_coeff 36 56 soft 25.0000 15.7500
pair_coeff 1 57 soft 25.0000 15.7500
pair_coeff 22 36 soft 25.0000 15.7500
pair_coeff 36 57 soft 25.0000 15.7500
pair_coeff 1 58 soft 25.0000 15.7500
pair_coeff 23 36 soft 25.0000 15.7500
pair_coeff 36 58 soft 25.0000 15.7500
pair_coeff 1 59 soft 25.0000 15.7500
pair_coeff 24 36 soft 25.0000 15.7500
pair_coeff 36 59 soft 25.0000 15.7500
pair_coeff 1 60 soft 25.0000 15.7500
pair_coeff 25 36 soft 25.0000 15.7500
pair_coeff 36 60 soft 25.0000 15.7500
pair_coeff 1 61 soft 25.0000 15.7500
pair_coeff 26 36 soft 25.0000 15.7500
pair_coeff 36 61 soft 25.0000 15.7500
pair_coeff 1 62 soft 25.0000 15.7500
pair_coeff 27 36 soft 25.0000 15.7500
pair_coeff 36 62 soft 25.0000 15.7500
pair_coeff 1 63 soft 25.0000 15.7500
pair_coeff 28 36 soft 25.0000 15.7500
pair_coeff 36 63 soft 25.0000 15.7500
pair_coeff 1 64 soft 25.0000 15.7500
pair_coeff 29 36 soft 25.0000 15.7500
pair_coeff 36 64 soft 25.0000 15.7500
pair_coeff 1 65 soft 25.0000 15.7500
pair_coeff 30 36 soft 25.0000 15.7500
pair_coeff 36 65 soft 25.0000 15.7500
pair_coeff 1 66 soft 25.0000 15.7500
pair_coeff 31 36 soft 25.0000 15.7500
pair_coeff 36 66 soft 25.0000 15.7500
pair_coeff 1 67 soft 25.0000 15.7500
pair_coeff 32 36 soft 25.0000 15.7500
pair_coeff 36 67 soft 25.0000 15.7500
pair_coeff 1 68 soft 25.0000 15.7500
pair_coeff 33 36 soft 25.0000 15.7500
pair_coeff 36 68 soft 25.0000 15.7500
pair_coeff 1 69 soft 25.0000 15.7500
pair_coeff 34 36 soft 25.0000 15.7500
pair_coeff 36 69 soft 25.0000 15.7500
pair_coeff 1 70 soft 25.0000 15.7500
pair_coeff 35 36 soft 25.0000 15.7500
pair_coeff 36 70 soft 25.0000 15.7500
pair_coeff 2 38 soft 25.0000 15.7500
pair_coeff 3 37 soft 25.0000 15.7500
pair_coeff 37 38 soft 25.0000 15.7500
pair_coeff 2 39 soft 25.0000 15.7500
pair_coeff 4 37 soft 25.0000 15.7500
pair_coeff 37 39 soft 25.0000 15.7500
pair_coeff 2 40 soft 25.0000 15.7500
pair_coeff 5 37 soft 25.0000 15.7500
pair_coeff 37 40 soft 25.0000 15.7500
pair_coeff 2 41 soft 25.0000 15.1007
pair_coeff 6 37 soft 25.0000 15.1007
pair_coeff 37 41 soft 25.0000 15.1007
pair_coeff 2 42 soft 25.0000 15.7500
pair_coeff 7 37 soft 25.0000 15.7500
pair_coeff 37 42 soft 25.0000 15.7500
pair_coeff 2 43 soft 25.0000 15.7500
pair_coeff 8 37 soft 25.0000 15.7500
pair_coeff 37 43 soft 25.0000 15.7500
pair_coeff 2 44 soft 25.0000 15.7500
pair_coeff 9 37 soft 25.0000 15.7500
pair_coeff 37 44 soft 25.0000 15.7500
pair_coeff 2 45 soft 25.0000 15.7500
pair_coeff 37 45 soft 25.0000 15.7500
pair_coeff 2 46 soft 25.0000 15.7500
pair_coeff 37 46 soft 25.0000 15.7500
pair_coeff 2 47 soft 25.0000 15.7500
pair_coeff 37 47 soft 25.0000 15.7500
pair_coeff 2 48 soft 25.0000 15.7500
pair_coeff 37 48 soft 25.0000 15.7500
pair_coeff 2 49 soft 25.0000 15.7500
pair_coeff 37 49 soft 25.0000 15.7500
pair_coeff 2 50 soft 25.0000 15.7500
pair_coeff 37 50 soft 25.0000 15.7500
pair_coeff 2 51 soft 25.0000 15.7500
pair_coeff 37 51 soft 25.0000 15.7500
pair_coeff 2 52 soft 25.0000 15.7500
pair_coeff 37 52 soft 25.0000 15.7500
pair_coeff 2 53 soft 25.0000 15.7500
pair_coeff 37 53 soft 25.0000 15.7500
pair_coeff 2 54 soft 25.0000 15.7500
pair_coeff 37 54 soft 25.0000 15.7500
pair_coeff 2 56 soft 25.0000 14.7541
pair_coeff 21 37 soft 25.0000 14.7541
pair_coeff 37 56 soft 25.0000 14.7541
pair_coeff 2 57 soft 25.0000 15.7500
pair_coeff 22 37 soft 25.0000 15.7500
pair_coeff 37 57 soft 25.0000 15.7500
pair_coeff 2 58 soft 25.0000 15.7500
pair_coeff 23 37 soft 25.0000 15.7500
pair_coeff 37 58 soft 25.0000 15.7500
pair_coeff 2 59 soft 25.0000 15.7500
pair_coeff 24 37 soft 25.0000 15.7500
pair_coeff 37 59 soft 25.0000 15.7500
pair_coeff 2 61 soft 25.0000 15.7500
pair_coeff 26 37 soft 25.0000 15.7500
pair_coeff 37 61 soft 25.0000 15.7500
pair_coeff 2 62 soft 25.0000 15.7500
pair_coeff 27 37 soft 25.0000 15.7500
pair_coeff 37 62 soft 25.0000 15.7500
pair_coeff 2 63 soft 25.0000 15.7500
pair_coeff 28 37 soft 25.0000 15.7500
pair_coeff 37 63 soft 25.0000 15.7500
pair_coeff 2 64 soft 25.0000 15.7500
pair_coeff 29 37 soft 25.0000 15.7500
pair_coeff 37 64 soft 25.0000 15.7500
pair_coeff 2 65 soft 25.0000 15.7500
pair_coeff 30 37 soft 25.0000 15.7500
pair_coeff 37 65 soft 25.0000 15.7500
pair_coeff 2 66 soft 25.0000 15.7500
pair_coeff 31 37 soft 25.0000 15.7500
pair_coeff 37 66 soft 25.0000 15.7500
pair_coeff 2 67 soft 25.0000 15.7500
pair_coeff 32 37 soft 25.0000 15.7500
pair_coeff 37 67 soft 25.0000 15.7500
pair_coeff 2 68 soft 25.0000 15.7500
pair_coeff 33 37 soft 25.0000 15.7500
pair_coeff 37 68 soft 25.0000 15.7500
pair_coeff 2 69 soft 25.0000 15.7500
pair_coeff 34 37 soft 25.0000 15.7500
pair_coeff 37 69 soft 25.0000 15.7500
pair_coeff 2 70 soft 25.0000 15.7500
pair_coeff 35 37 soft 25.0000 15.7500
pair_coeff 37 70 soft 25.0000 15.7500
pair_coeff 3 39 soft 25.0000 14.0751
pair_coeff 4 38 soft 25.0000 14.0751
pair_coeff 38 39 soft 25.0000 14.0751
pair_coeff 3 40 soft 25.0000 15.7500
pair_coeff 5 38 soft 25.0000 15.7500
pair_coeff 38 40 soft 25.0000 15.7500
pair_coeff 3 41 soft 25.0000 15.7500
pair_coeff 6 38 soft 25.0000 15.7500
pair_coeff 38 41 soft 25.0000 15.7500
pair_coeff 3 42 soft 25.0000 15.7500
pair_coeff 7 38 soft 25.0000 15.7500
pair_coeff 38 42 soft 25.0000 15.7500
pair_coeff 3 43 soft 25.0000 15.7500
pair_coeff 8 38 soft 25.0000 15.7500
pair_coeff 38 43 soft 25.0000 15.7500
pair_coeff 3 44 soft 25.0000 15.7500
pair_coeff 9 38 soft 25.0000 15.7500
pair_coeff 38 44 soft 25.0000 15.7500
pair_coeff 3 45 soft 25.0000 15.7500
pair_coeff 38 45 soft 25.0000 15.7500
pair_coeff 3 46 soft 25.0000 15.7500
pair_coeff 38 46 soft 25.0000 15.7500
pair_coeff 3 47 soft 25.0000 15.7500
pair_coeff 38 47 soft 25.0000 15.7500
pair_coeff 3 48 soft 25.0000 15.7500
pair_coeff 38 48 soft 25.0000 15.7500
pair_coeff 3 49 soft 25.0000 15.7500
pair_coeff 38 49 soft 25.0000 15.7500
pair_coeff 3 50 soft 25.0000 15.7500
pair_coeff 38 50 soft 25.0000 15.7500
pair_coeff 3 51 soft 25.0000 15.7500
pair_coeff 38 51 soft 25.0000 15.7500
pair_coeff 3 52 soft 25.0000 15.7500
pair_coeff 38 52 soft 25.0000 15.7500
pair_coeff 3 53 soft 25.0000 15.7500
pair_coeff 38 53 soft 25.0000 15.7500
pair_coeff 3 54 soft 25.0000 15.7500
pair_coeff 38 54 soft 25.0000 15.7500
pair_coeff 3 55 soft 25.0000 14.8996
pair_coeff 38 55 soft 25.0000 14.8996
pair_coeff 3 56 soft 25.0000 15.4055
pair_coeff 38 56 soft 25.0000 15.4055
pair_coeff 3 57 soft 25.0000 15.7500
pair_coeff 38 57 soft 25.0000 15.7500
pair_coeff 3 58 soft 25.0000 15.7500
pair_coeff 38 58 soft 25.0000 15.7500
pair_coeff 3 59 soft 25.0000 15.7500
pair_coeff 38 59 soft 25.0000 15.7500
pair_coeff 3 60 soft 25.0000 15.7500
pair_coeff 38 60 soft 25.0000 15.7500
pair_coeff 3 61 soft 25.0000 15.7500
pair_coeff 38 61 soft 25.0000 15.7500
pair_coeff 3 62 soft 25.0000 15.7500
pair_coeff 38 62 soft 25.0000 15.7500
pair_coeff 3 63 soft 25.0000 15.7500
pair_coeff 38 63 soft 25.0000 15.7500
pair_coeff 3 64 soft 25.0000 15.7500
pair_coeff 38 64 soft 25.0000 15.7500
pair_coeff 3 65 soft 25.0000 15.7500
pair_coeff 30 38 soft 25.0000 15.7500
pair_coeff 38 65 soft 25.0000 15.7500
pair_coeff 3 66 soft 25.0000 15.7500
pair_coeff 31 38 soft 25.0000 15.7500
pair_coeff 38 66 soft 25.0000 15.7500
pair_coeff 3 67 soft 25.0000 15.7500
pair_coeff 32 38 soft 25.0000 15.7500
pair_coeff 38 67 soft 25.0000 15.7500
pair_coeff 3 68 soft 25.0000 15.7500
pair_coeff 33 38 soft 25.0000 15.7500
pair_coeff 38 68 soft 25.0000 15.7500
pair_coeff 3 69 soft 25.0000 15.7500
pair_coeff 34 38 soft 25.0000 15.7500
pair_coeff 38 69 soft 25.0000 15.7500
pair_coeff 3 70 soft 25.0000 15.7500
pair_coeff 35 38 soft 25.0000 15.7500
pair_coeff 38 70 soft 25.0000 15.7500
pair_coeff 4 40 soft 25.0000 15.7500
pair_coeff 5 39 soft 25.0000 15.7500
pair_coeff 39 40 soft 25.0000 15.7500
pair_coeff 4 41 soft 25.0000 15.7500
pair_coeff 6 39 soft 25.0000 15.7500
pair_coeff 39 41 soft 25.0000 15.7500
pair_coeff 4 42 soft 25.0000 15.7500
pair_coeff 7 39 soft 25.0000 15.7500
pair_coeff 39 42 soft 25.0000 15.7500
pair_coeff 4 43 soft 25.0000 15.7500
pair_coeff 8 39 soft 25.0000 15.7500
pair_coeff 39 43 soft 25.0000 15.7500
pair_coeff 4 44 soft 25.0000 15.7500
pair_coeff 9 39 soft 25.0000 15.7500
pair_coeff 39 44 soft 25.0000 15.7500
pair_coeff 4 45 soft 25.0000 15.7500
pair_coeff 39 45 soft 25.0000 15.7500
pair_coeff 4 46 soft 25.0000 15.7500
pair_coeff 39 46 soft 25.0000 15.7500
pair_coeff 4 47 soft 25.0000 15.7500
pair_coeff 39 47 soft 25.0000 15.7500
pair_coeff 4 48 soft 25.0000 15.7500
pair_coeff 39 48 soft 25.0000 15.7500
pair_coeff 4 49 soft 25.0000 15.7500
pair_coeff 39 49 soft 25.0000 15.7500
pair_coeff 4 50 soft 25.0000 15.7500
pair_coeff 39 50 soft 25.0000 15.7500
pair_coeff 4 51 soft 25.0000 15.7500
pair_coeff 39 51 soft 25.0000 15.7500
pair_coeff 4 52 soft 25.0000 15.7500
pair_coeff 39 52 soft 25.0000 15.7500
pair_coeff 4 53 soft 25.0000 15.7500
pair_coeff 39 53 soft 25.0000 15.7500
pair_coeff 4 54 soft 25.0000 11.8236
pair_coeff 39 54 soft 25.0000 11.8236
pair_coeff 4 56 soft 25.0000 15.7500
pair_coeff 39 56 soft 25.0000 15.7500
pair_coeff 4 57 soft 25.0000 15.7500
pair_coeff 39 57 soft 25.0000 15.7500
pair_coeff 4 58 soft 25.0000 15.7500
pair_coeff 39 58 soft 25.0000 15.7500
pair_coeff 4 59 soft 25.0000 15.7500
pair_coeff 39 59 soft 25.0000 15.7500
pair_coeff 4 60 soft 25.0000 15.7500
pair_coeff 39 60 soft 25.0000 15.7500
pair_coeff 4 61 soft 25.0000 15.7500
pair_coeff 39 61 soft 25.0000 15.7500
pair_coeff 4 62 soft 25.0000 15.7500
pair_coeff 39 62 soft 25.0000 15.7500
pair_coeff 4 63 soft 25.0000 15.7500
pair_coeff 39 63 soft 25.0000 15.7500
pair_coeff 4 64 soft 25.0000 15.7500
pair_coeff 39 64 soft 25.0000 15.7500
pair_coeff 4 65 soft 25.0000 15.7500
pair_coeff 39 65 soft 25.0000 15.7500
pair_coeff 4 66 soft 25.0000 15.7500
pair_coeff 39 66 soft 25.0000 15.7500
pair_coeff 4 67 soft 25.0000 15.7500
pair_coeff 39 67 soft 25.0000 15.7500
pair_coeff 4 68 soft 25.0000 15.7500
pair_coeff 39 68 soft 25.0000 15.7500
pair_coeff 4 69 soft 25.0000 15.7500
pair_coeff 39 69 soft 25.0000 15.7500
pair_coeff 4 70 soft 25.0000 15.7500
pair_coeff 39 70 soft 25.0000 15.7500
pair_coeff 5 40 soft 25.0000 15.7500
pair_coeff 40 40 soft 25.0000 15.7500
pair_coeff 5 41 soft 25.0000 15.7500
pair_coeff 6 40 soft 25.0000 15.7500
pair_coeff 40 41 soft 25.0000 15.7500
pair_coeff 5 42 soft 25.0000 15.7500
pair_coeff 7 40 soft 25.0000 15.7500
pair_coeff 40 42 soft 25.0000 15.7500
pair_coeff 5 43 soft 25.0000 15.7500
pair_coeff 8 40 soft 25.0000 15.7500
pair_coeff 40 43 soft 25.0000 15.7500
pair_coeff 5 44 soft 25.0000 13.7499
pair_coeff 9 40 soft 25.0000 13.7499
pair_coeff 40 44 soft 25.0000 13.7499
pair_coeff 5 45 soft 25.0000 15.7500
pair_coeff 40 45 soft 25.0000 15.7500
pair_coeff 5 46 soft 25.0000 15.7500
pair_coeff 40 46 soft 25.0000 15.7500
pair_coeff 5 47 soft 25.0000 15.7500
pair_coeff 40 47 soft 25.0000 15.7500
pair_coeff 5 48 soft 25.0000 15.7500
pair_coeff 40 48 soft 25.0000 15.7500
pair_coeff 5 49 soft 25.0000 15.7500
pair_coeff 40 49 soft 25.0000 15.7500
pair_coeff 5 50 soft 25.0000 15.7500
pair_coeff 40 50 soft 25.0000 15.7500
pair_coeff 5 51 soft 25.0000 15.7500
pair_coeff 40 51 soft 25.0000 15.7500
pair_coeff 5 52 soft 25.0000 15.7500
pair_coeff 40 52 soft 25.0000 15.7500
pair_coeff 5 53 soft 25.0000 15.7500
pair_coeff 40 53 soft 25.0000 15.7500
pair_coeff 5 54 soft 25.0000 14.8973
pair_coeff 40 54 soft 25.0000 14.8973
pair_coeff 5 55 soft 25.0000 15.7500
pair_coeff 40 55 soft 25.0000 15.7500
pair_coeff 5 56 soft 25.0000 15.7500
pair_coeff 40 56 soft 25.0000 15.7500
pair_coeff 5 57 soft 25.0000 15.7500
pair_coeff 40 57 soft 25.0000 15.7500
pair_coeff 5 58 soft 25.0000 15.7500
pair_coeff 40 58 soft 25.0000 15.7500
pair_coeff 5 59 soft 25.0000 15.7500
pair_coeff 40 59 soft 25.0000 15.7500
pair_coeff 5 60 soft 25.0000 15.7500
pair_coeff 40 60 soft 25.0000 15.7500
pair_coeff 5 61 soft 25.0000 15.7500
pair_coeff 40 61 soft 25.0000 15.7500
pair_coeff 5 62 soft 25.0000 15.7500
pair_coeff 40 62 soft 25.0000 15.7500
pair_coeff 5 63 soft 25.0000 15.7500
pair_coeff 40 63 soft 25.0000 15.7500
pair_coeff 5 64 soft 25.0000 15.7500
pair_coeff 40 64 soft 25.0000 15.7500
pair_coeff 5 65 soft 25.0000 15.7500
pair_coeff 40 65 soft 25.0000 15.7500
pair_coeff 5 66 soft 25.0000 15.7500
pair_coeff 40 66 soft 25.0000 15.7500
pair_coeff 5 67 soft 25.0000 15.7500
pair_coeff 40 67 soft 25.0000 15.7500
pair_coeff 5 68 soft 25.0000 15.7500
pair_coeff 40 68 soft 25.0000 15.7500
pair_coeff 5 69 soft 25.0000 15.7500
pair_coeff 40 69 soft 25.0000 15.7500
pair_coeff 5 70 soft 25.0000 15.7500
pair_coeff 40 70 soft 25.0000 15.7500
pair_coeff 6 41 soft 25.0000 15.7500
pair_coeff 41 41 soft 25.0000 15.7500
pair_coeff 6 42 soft 25.0000 15.7500
pair_coeff 7 41 soft 25.0000 15.7500
pair_coeff 41 42 soft 25.0000 15.7500
pair_coeff 6 43 soft 25.0000 15.4225
pair_coeff 8 41 soft 25.0000 15.4225
pair_coeff 41 43 soft 25.0000 15.4225
pair_coeff 6 44 soft 25.0000 11.5329
pair_coeff 9 41 soft 25.0000 11.5329
pair_coeff 41 44 soft 25.0000 11.5329
pair_coeff 6 45 soft 25.0000 15.7500
pair_coeff 41 45 soft 25.0000 15.7500
pair_coeff 6 46 soft 25.0000 15.7500
pair_coeff 41 46 soft 25.0000 15.7500
pair_coeff 6 47 soft 25.0000 15.7500
pair_coeff 41 47 soft 25.0000 15.7500
pair_coeff 6 48 soft 25.0000 15.7500
pair_coeff 41 48 soft 25.0000 15.7500
pair_coeff 6 49 soft 25.0000 15.7500
pair_coeff 41 49 soft 25.0000 15.7500
pair_coeff 6 50 soft 25.0000 15.7500
pair_coeff 41 50 soft 25.0000 15.7500
pair_coeff 6 51 soft 25.0000 15.7500
pair_coeff 41 51 soft 25.0000 15.7500
pair_coeff 6 52 soft 25.0000 15.7500
pair_coeff 41 52 soft 25.0000 15.7500
pair_coeff 6 53 soft 25.0000 15.7500
pair_coeff 41 53 soft 25.0000 15.7500
pair_coeff 6 54 soft 25.0000 15.7500
pair_coeff 41 54 soft 25.0000 15.7500
pair_coeff 6 55 soft 25.0000 15.7500
pair_coeff 41 55 soft 25.0000 15.7500
pair_coeff 6 56 soft 25.0000 15.7500
pair_coeff 41 56 soft 25.0000 15.7500
pair_coeff 6 57 soft 25.0000 15.7500
pair_coeff 41 57 soft 25.0000 15.7500
pair_coeff 6 58 soft 25.0000 15.7500
pair_coeff 41 58 soft 25.0000 15.7500
pair_coeff 6 59 soft 25.0000 15.7500
pair_coeff 41 59 soft 25.0000 15.7500
pair_coeff 6 60 soft 25.0000 15.7500
pair_coeff 41 60 soft 25.0000 15.7500
pair_coeff 6 61 soft 25.0000 15.7500
pair_coeff 41 61 soft 25.0000 15.7500
pair_coeff 6 62 soft 25.0000 15.7500
pair_coeff 41 62 soft 25.0000 15.7500
pair_coeff 6 63 soft 25.0000 15.7500
pair_coeff 41 63 soft 25.0000 15.7500
pair_coeff 6 64 soft 25.0000 15.7500
pair_coeff 41 64 soft 25.0000 15.7500
pair_coeff 6 65 soft 25.0000 15.7500
pair_coeff 41 65 soft 25.0000 15.7500
pair_coeff 6 66 soft 25.0000 15.7500
pair_coeff 41 66 soft 25.0000 15.7500
pair_coeff 6 67 soft 25.0000 15.7500
pair_coeff 41 67 soft 25.0000 15.7500
pair_coeff 6 68 soft 25.0000 15.7500
pair_coeff 41 68 soft 25.0000 15.7500
pair_coeff 6 69 soft 25.0000 15.7500
pair_coeff 41 69 soft 25.0000 15.7500
pair_coeff 6 70 soft 25.0000 15.7500
pair_coeff 41 70 soft 25.0000 15.7500
pair_coeff 7 42 soft 25.0000 15.7500
pair_coeff 42 42 soft 25.0000 15.7500
pair_coeff 7 43 soft 25.0000 15.4611
pair_coeff 8 42 soft 25.0000 15.4611
pair_coeff 42 43 soft 25.0000 15.4611
pair_coeff 7 44 soft 25.0000 15.7500
pair_coeff 9 42 soft 25.0000 15.7500
pair_coeff 42 44 soft 25.0000 15.7500
pair_coeff 7 45 soft 25.0000 15.7500
pair_coeff 42 45 soft 25.0000 15.7500
pair_coeff 7 46 soft 25.0000 15.7500
pair_coeff 42 46 soft 25.0000 15.7500
pair_coeff 7 47 soft 25.0000 15.7500
pair_coeff 42 47 soft 25.0000 15.7500
pair_coeff 7 48 soft 25.0000 15.7500
pair_coeff 42 48 soft 25.0000 15.7500
pair_coeff 7 49 soft 25.0000 15.7500
pair_coeff 42 49 soft 25.0000 15.7500
pair_coeff 7 50 soft 25.0000 15.7500
pair_coeff 42 50 soft 25.0000 15.7500
pair_coeff 7 51 soft 25.0000 15.7500
pair_coeff 42 51 soft 25.0000 15.7500
pair_coeff 7 52 soft 25.0000 15.7500
pair_coeff 42 52 soft 25.0000 15.7500
pair_coeff 7 53 soft 25.0000 15.7500
pair_coeff 42 53 soft 25.0000 15.7500
pair_coeff 7 54 soft 25.0000 15.7500
pair_coeff 42 54 soft 25.0000 15.7500
pair_coeff 7 55 soft 25.0000 15.7500
pair_coeff 42 55 soft 25.0000 15.7500
pair_coeff 7 56 soft 25.0000 15.7500
pair_coeff 42 56 soft 25.0000 15.7500
pair_coeff 7 57 soft 25.0000 15.7500
pair_coeff 42 57 soft 25.0000 15.7500
pair_coeff 7 58 soft 25.0000 15.7500
pair_coeff 42 58 soft 25.0000 15.7500
pair_coeff 7 59 soft 25.0000 15.7500
pair_coeff 42 59 soft 25.0000 15.7500
pair_coeff 7 60 soft 25.0000 15.7500
pair_coeff 42 60 soft 25.0000 15.7500
pair_coeff 7 61 soft 25.0000 15.7500
pair_coeff 42 61 soft 25.0000 15.7500
pair_coeff 7 62 soft 25.0000 15.7500
pair_coeff 42 62 soft 25.0000 15.7500
pair_coeff 7 63 soft 25.0000 15.7500
pair_coeff 42 63 soft 25.0000 15.7500
pair_coeff 7 64 soft 25.0000 15.7500
pair_coeff 42 64 soft 25.0000 15.7500
pair_coeff 7 65 soft 25.0000 15.7500
pair_coeff 42 65 soft 25.0000 15.7500
pair_coeff 7 66 soft 25.0000 15.7500
pair_coeff 42 66 soft 25.0000 15.7500
pair_coeff 7 67 soft 25.0000 15.7500
pair_coeff 42 67 soft 25.0000 15.7500
pair_coeff 7 68 soft 25.0000 15.7500
pair_coeff 42 68 soft 25.0000 15.7500
pair_coeff 7 69 soft 25.0000 15.7500
pair_coeff 42 69 soft 25.0000 15.7500
pair_coeff 7 70 soft 25.0000 15.7500
pair_coeff 42 70 soft 25.0000 15.7500
pair_coeff 8 43 soft 25.0000 15.7500
pair_coeff 43 43 soft 25.0000 15.7500
pair_coeff 8 44 soft 25.0000 15.7500
pair_coeff 9 43 soft 25.0000 15.7500
pair_coeff 43 44 soft 25.0000 15.7500
pair_coeff 8 45 soft 25.0000 15.7500
pair_coeff 43 45 soft 25.0000 15.7500
pair_coeff 8 46 soft 25.0000 15.7500
pair_coeff 43 46 soft 25.0000 15.7500
pair_coeff 8 47 soft 25.0000 15.7500
pair_coeff 43 47 soft 25.0000 15.7500
pair_coeff 8 48 soft 25.0000 15.7500
pair_coeff 43 48 soft 25.0000 15.7500
pair_coeff 8 49 soft 25.0000 15.7500
pair_coeff 43 49 soft 25.0000 15.7500
pair_coeff 8 50 soft 25.0000 15.7500
pair_coeff 43 50 soft 25.0000 15.7500
pair_coeff 8 51 soft 25.0000 15.7500
pair_coeff 43 51 soft 25.0000 15.7500
pair_coeff 8 52 soft 25.0000 15.7500
pair_coeff 43 52 soft 25.0000 15.7500
pair_coeff 8 53 soft 25.0000 15.7500
pair_coeff 43 53 soft 25.0000 15.7500
pair_coeff 8 54 soft 25.0000 15.7500
pair_coeff 43 54 soft 25.0000 15.7500
pair_coeff 8 55 soft 25.0000 15.7500
pair_coeff 43 55 soft 25.0000 15.7500
pair_coeff 8 56 soft 25.0000 15.7500
pair_coeff 43 56 soft 25.0000 15.7500
pair_coeff 8 57 soft 25.0000 15.7500
pair_coeff 43 57 soft 25.0000 15.7500
pair_coeff 8 58 soft 25.0000 15.7500
pair_coeff 43 58 soft 25.0000 15.7500
pair_coeff 8 59 soft 25.0000 15.7500
pair_coeff 43 59 soft 25.0000 15.7500
pair_coeff 8 60 soft 25.0000 15.7500
pair_coeff 43 60 soft 25.0000 15.7500
pair_coeff 8 61 soft 25.0000 15.7500
pair_coeff 43 61 soft 25.0000 15.7500
pair_coeff 8 62 soft 25.0000 15.7500
pair_coeff 43 62 soft 25.0000 15.7500
pair_coeff 8 63 soft 25.0000 15.7500
pair_coeff 43 63 soft 25.0000 15.7500
pair_coeff 8 64 soft 25.0000 15.7500
pair_coeff 43 64 soft 25.0000 15.7500
pair_coeff 8 65 soft 25.0000 15.7500
pair_coeff 43 65 soft 25.0000 15.7500
pair_coeff 8 66 soft 25.0000 15.7500
pair_coeff 43 66 soft 25.0000 15.7500
pair_coeff 8 67 soft 25.0000 15.7500
pair_coeff 43 67 soft 25.0000 15.7500
pair_coeff 8 68 soft 25.0000 15.7500
pair_coeff 43 68 soft 25.0000 15.7500
pair_coeff 8 69 soft 25.0000 15.7500
pair_coeff 43 69 soft 25.0000 15.7500
pair_coeff 8 70 soft 25.0000 15.7500
pair_coeff 43 70 soft 25.0000 15.7500
pair_coeff 9 44 soft 25.0000 15.7500
pair_coeff 44 44 soft 25.0000 15.7500
pair_coeff 9 45 soft 25.0000 15.7500
pair_coeff 44 45 soft 25.0000 15.7500
pair_coeff 9 46 soft 25.0000 15.7500
pair_coeff 44 46 soft 25.0000 15.7500
pair_coeff 9 47 soft 25.0000 15.7500
pair_coeff 44 47 soft 25.0000 15.7500
pair_coeff 9 48 soft 25.0000 15.7500
pair_coeff 44 48 soft 25.0000 15.7500
pair_coeff 9 49 soft 25.0000 15.7500
pair_coeff 44 49 soft 25.0000 15.7500
pair_coeff 9 50 soft 25.0000 13.7451
pair_coeff 44 50 soft 25.0000 13.7451
pair_coeff 9 51 soft 25.0000 10.3352
pair_coeff 44 51 soft 25.0000 10.3352
pair_coeff 9 52 soft 25.0000 15.7500
pair_coeff 44 52 soft 25.0000 15.7500
pair_coeff 9 53 soft 25.0000 15.7500
pair_coeff 44 53 soft 25.0000 15.7500
pair_coeff 9 54 soft 25.0000 15.7500
pair_coeff 44 54 soft 25.0000 15.7500
pair_coeff 9 55 soft 25.0000 15.7500
pair_coeff 44 55 soft 25.0000 15.7500
pair_coeff 9 56 soft 25.0000 15.7500
pair_coeff 44 56 soft 25.0000 15.7500
pair_coeff 9 57 soft 25.0000 15.7500
pair_coeff 44 57 soft 25.0000 15.7500
pair_coeff 9 58 soft 25.0000 15.7500
pair_coeff 44 58 soft 25.0000 15.7500
pair_coeff 9 59 soft 25.0000 15.7500
pair_coeff 44 59 soft 25.0000 15.7500
pair_coeff 9 60 soft 25.0000 15.7500
pair_coeff 44 60 soft 25.0000 15.7500
pair_coeff 9 61 soft 25.0000 15.7500
pair_coeff 44 61 soft 25.0000 15.7500
pair_coeff 9 62 soft 25.0000 15.7500
pair_coeff 44 62 soft 25.0000 15.7500
pair_coeff 9 63 soft 25.0000 15.7500
pair_coeff 44 63 soft 25.0000 15.7500
pair_coeff 9 64 soft 25.0000 15.7500
pair_coeff 44 64 soft 25.0000 15.7500
pair_coeff 9 65 soft 25.0000 15.7500
pair_coeff 44 65 soft 25.0000 15.7500
pair_coeff 9 66 soft 25.0000 15.7500
pair_coeff 44 66 soft 25.0000 15.7500
pair_coeff 9 67 soft 25.0000 15.7500
pair_coeff 44 67 soft 25.0000 15.7500
pair_coeff 9 68 soft 25.0000 15.7500
pair_coeff 44 68 soft 25.0000 15.7500
pair_coeff 9 69 soft 25.0000 15.7500
pair_coeff 44 69 soft 25.0000 15.7500
pair_coeff 9 70 soft 25.0000 15.7500
pair_coeff 44 70 soft 25.0000 15.7500
pair_coeff 10 45 soft 25.0000 15.7500
pair_coeff 45 45 soft 25.0000 15.7500
pair_coeff 10 46 soft 25.0000 15.7500
pair_coeff 11 45 soft 25.0000 15.7500
pair_coeff 45 46 soft 25.0000 15.7500
pair_coeff 10 47 soft 25.0000 15.7500
pair_coeff 12 45 soft 25.0000 15.7500
pair_coeff 45 47 soft 25.0000 15.7500
pair_coeff 10 48 soft 25.0000 15.7500
pair_coeff 13 45 soft 25.0000 15.7500
pair_coeff 45 48 soft 25.0000 15.7500
pair_coeff 10 49 soft 25.0000 15.7500
pair_coeff 14 45 soft 25.0000 15.7500
pair_coeff 45 49 soft 25.0000 15.7500
pair_coeff 10 50 soft 25.0000 14.7858
pair_coeff 15 45 soft 25.0000 14.7858
pair_coeff 45 50 soft 25.0000 14.7858
pair_coeff 10 51 soft 25.0000 8.8196
pair_coeff 16 45 soft 25.0000 8.8196
pair_coeff 45 51 soft 25.0000 8.8196
pair_coeff 10 52 soft 25.0000 13.5213
pair_coeff 17 45 soft 25.0000 13.5213
pair_coeff 45 52 soft 25.0000 13.5213
pair_coeff 10 53 soft 25.0000 15.7500
pair_coeff 18 45 soft 25.0000 15.7500
pair_coeff 45 53 soft 25.0000 15.7500
pair_coeff 10 54 soft 25.0000 15.7500
pair_coeff 19 45 soft 25.0000 15.7500
pair_coeff 45 54 soft 25.0000 15.7500
pair_coeff 10 55 soft 25.0000 15.7500
pair_coeff 20 45 soft 25.0000 15.7500
pair_coeff 45 55 soft 25.0000 15.7500
pair_coeff 10 56 soft 25.0000 15.7500
pair_coeff 21 45 soft 25.0000 15.7500
pair_coeff 45 56 soft 25.0000 15.7500
pair_coeff 10 57 soft 25.0000 15.7500
pair_coeff 22 45 soft 25.0000 15.7500
pair_coeff 45 57 soft 25.0000 15.7500
pair_coeff 10 58 soft 25.0000 15.7500
pair_coeff 23 45 soft 25.0000 15.7500
pair_coeff 45 58 soft 25.0000 15.7500
pair_coeff 10 59 soft 25.0000 15.7500
pair_coeff 24 45 soft 25.0000 15.7500
pair_coeff 45 59 soft 25.0000 15.7500
pair_coeff 10 60 soft 25.0000 15.7500
pair_coeff 25 45 soft 25.0000 15.7500
pair_coeff 45 60 soft 25.0000 15.7500
pair_coeff 10 61 soft 25.0000 15.7500
pair_coeff 26 45 soft 25.0000 15.7500
pair_coeff 45 61 soft 25.0000 15.7500
pair_coeff 10 62 soft 25.0000 15.7500
pair_coeff 27 45 soft 25.0000 15.7500
pair_coeff 45 62 soft 25.0000 15.7500
pair_coeff 10 63 soft 25.0000 15.7500
pair_coeff 28 45 soft 25.0000 15.7500
pair_coeff 45 63 soft 25.0000 15.7500
pair_coeff 10 64 soft 25.0000 15.7500
pair_coeff 29 45 soft 25.0000 15.7500
pair_coeff 45 64 soft 25.0000 15.7500
pair_coeff 10 65 soft 25.0000 15.7500
pair_coeff 30 45 soft 25.0000 15.7500
pair_coeff 45 65 soft 25.0000 15.7500
pair_coeff 10 66 soft 25.0000 15.7500
pair_coeff 31 45 soft 25.0000 15.7500
pair_coeff 45 66 soft 25.0000 15.7500
pair_coeff 10 67 soft 25.0000 15.7500
pair_coeff 32 45 soft 25.0000 15.7500
pair_coeff 45 67 soft 25.0000 15.7500
pair_coeff 10 68 soft 25.0000 15.7500
pair_coeff 33 45 soft 25.0000 15.7500
pair_coeff 45 68 soft 25.0000 15.7500
pair_coeff 10 69 soft 25.0000 15.7500
pair_coeff 34 45 soft 25.0000 15.7500
pair_coeff 45 69 soft 25.0000 15.7500
pair_coeff 10 70 soft 25.0000 15.7500
pair_coeff 35 45 soft 25.0000 15.7500
pair_coeff 45 70 soft 25.0000 15.7500
pair_coeff 11 46 soft 25.0000 15.7500
pair_coeff 46 46 soft 25.0000 15.7500
pair_coeff 11 47 soft 25.0000 15.7500
pair_coeff 12 46 soft 25.0000 15.7500
pair_coeff 46 47 soft 25.0000 15.7500
pair_coeff 11 48 soft 25.0000 15.7500
pair_coeff 13 46 soft 25.0000 15.7500
pair_coeff 46 48 soft 25.0000 15.7500
pair_coeff 11 49 soft 25.0000 15.7500
pair_coeff 14 46 soft 25.0000 15.7500
pair_coeff 46 49 soft 25.0000 15.7500
pair_coeff 11 50 soft 25.0000 15.7500
pair_coeff 15 46 soft 25.0000 15.7500
pair_coeff 46 50 soft 25.0000 15.7500
pair_coeff 11 51 soft 25.0000 15.6491
pair_coeff 16 46 soft 25.0000 15.6491
pair_coeff 46 51 soft 25.0000 15.6491
pair_coeff 11 52 soft 25.0000 15.7500
pair_coeff 17 46 soft 25.0000 15.7500
pair_coeff 46 52 soft 25.0000 15.7500
pair_coeff 11 53 soft 25.0000 15.7500
pair_coeff 18 46 soft 25.0000 15.7500
pair_coeff 46 53 soft 25.0000 15.7500
pair_coeff 11 54 soft 25.0000 15.7500
pair_coeff 19 46 soft 25.0000 15.7500
pair_coeff 46 54 soft 25.0000 15.7500
pair_coeff 11 55 soft 25.0000 15.7500
pair_coeff 20 46 soft 25.0000 15.7500
pair_coeff 46 55 soft 25.0000 15.7500
pair_coeff 11 56 soft 25.0000 15.7500
pair_coeff 21 46 soft 25.0000 15.7500
pair_coeff 46 56 soft 25.0000 15.7500
pair_coeff 11 57 soft 25.0000 15.7500
pair_coeff 22 46 soft 25.0000 15.7500
pair_coeff 46 57 soft 25.0000 15.7500
pair_coeff 11 58 soft 25.0000 15.7500
pair_coeff 23 46 soft 25.0000 15.7500
pair_coeff 46 58 soft 25.0000 15.7500
pair_coeff 11 59 soft 25.0000 15.7500
pair_coeff 24 46 soft 25.0000 15.7500
pair_coeff 46 59 soft 25.0000 15.7500
pair_coeff 11 60 soft 25.0000 15.7500
pair_coeff 25 46 soft 25.0000 15.7500
pair_coeff 46 60 soft 25.0000 15.7500
pair_coeff 11 61 soft 25.0000 15.7500
pair_coeff 26 46 soft 25.0000 15.7500
pair_coeff 46 61 soft 25.0000 15.7500
pair_coeff 11 62 soft 25.0000 15.7500
pair_coeff 27 46 soft 25.0000 15.7500
pair_coeff 46 62 soft 25.0000 15.7500
pair_coeff 11 63 soft 25.0000 15.7500
pair_coeff 28 46 soft 25.0000 15.7500
pair_coeff 46 63 soft 25.0000 15.7500
pair_coeff 11 64 soft 25.0000 15.7500
pair_coeff 29 46 soft 25.0000 15.7500
pair_coeff 46 64 soft 25.0000 15.7500
pair_coeff 11 65 soft 25.0000 15.7500
pair_coeff 30 46 soft 25.0000 15.7500
pair_coeff 46 65 soft 25.0000 15.7500
pair_coeff 11 66 soft 25.0000 15.7500
pair_coeff 31 46 soft 25.0000 15.7500
pair_coeff 46 66 soft 25.0000 15.7500
pair_coeff 11 67 soft 25.0000 15.7500
pair_coeff 32 46 soft 25.0000 15.7500
pair_coeff 46 67 soft 25.0000 15.7500
pair_coeff 11 68 soft 25.0000 15.7500
pair_coeff 33 46 soft 25.0000 15.7500
pair_coeff 46 68 soft 25.0000 15.7500
pair_coeff 11 69 soft 25.0000 15.7500
pair_coeff 34 46 soft 25.0000 15.7500
pair_coeff 46 69 soft 25.0000 15.7500
pair_coeff 11 70 soft 25.0000 15.7500
pair_coeff 35 46 soft 25.0000 15.7500
pair_coeff 46 70 soft 25.0000 15.7500
pair_coeff 12 47 soft 25.0000 15.7500
pair_coeff 47 47 soft 25.0000 15.7500
pair_coeff 12 48 soft 25.0000 15.7500
pair_coeff 13 47 soft 25.0000 15.7500
pair_coeff 47 48 soft 25.0000 15.7500
pair_coeff 12 49 soft 25.0000 15.7500
pair_coeff 14 47 soft 25.0000 15.7500
pair_coeff 47 49 soft 25.0000 15.7500
pair_coeff 12 50 soft 25.0000 15.7500
pair_coeff 15 47 soft 25.0000 15.7500
pair_coeff 47 50 soft 25.0000 15.7500
pair_coeff 12 51 soft 25.0000 15.7500
pair_coeff 16 47 soft 25.0000 15.7500
pair_coeff 47 51 soft 25.0000 15.7500
pair_coeff 12 52 soft 25.0000 15.7500
pair_coeff 17 47 soft 25.0000 15.7500
pair_coeff 47 52 soft 25.0000 15.7500
pair_coeff 12 53 soft 25.0000 15.7500
pair_coeff 18 47 soft 25.0000 15.7500
pair_coeff 47 53 soft 25.0000 15.7500
pair_coeff 12 54 soft 25.0000 15.7500
pair_coeff 19 47 soft 25.0000 15.7500
pair_coeff 47 54 soft 25.0000 15.7500
pair_coeff 12 55 soft 25.0000 15.7500