#S
pair_coeff 5 50 twogauss -1.46057 22.258137 0.980435 -2.52607 25.073048 0.721680 28.0000
pair_coeff 5 52 twogauss -1.63308 13.740115 0.513524 -1.27466 16.267136 0.745490 28.0000
pair_coeff 5 53 twogauss -0.562092 20.163395 0.673948 -1.49749 22.850471 0.604473 28.0000
pair_coeff 5 80 twogauss -0.506478 20.843412 0.173389 -7.6725 25.445183 2.648284 28.0000
pair_coeff 5 81 twogauss -1.88362 21.695591 0.685198 -1.15394 23.780172 0.848617 28.0000
pair_coeff 5 88 twogauss -1.21477 19.701919 1.482410 -2.64752 25.016665 1.962783 28.0000
pair_coeff 5 100 twogauss -0.457653 19.616914 1.222357 -3.69545 24.231333 1.153653 28.0000
pair_coeff 10 45 twogauss -1.62378 20.637803 0.669374 -0.390972 22.220749 0.575265 28.0000
pair_coeff 10 46 twogauss -3.79115 22.947631 0.334906 -22.9872 26.579244 1.990379 28.0000
pair_coeff 12 36 twogauss -0.042315 19.259647 0.377819 -1.06206 20.792688 1.567598 28.0000
pair_coeff 12 44 twogauss -1.4428 22.494647 0.861508 -2.81799 25.864900 1.206510 28.0000
pair_coeff 12 45 twogauss -1.03397 15.084975 0.394510 -1.69018 16.812501 0.643888 28.0000
pair_coeff 12 46 twogauss -2.06311 15.355999 1.060016 -2.07799 18.591919 1.016442 28.0000
pair_coeff 13 34 twogauss -4.2076 19.821822 1.427765 -14.3397 28.000000 1.610759 28.0000
pair_coeff 13 37 twogauss -2.87509 17.680260 0.834161 0 24.536558 2.691563 28.0000
pair_coeff 13 50 twogauss -0.353772 23.127359 0.581813 -0.522102 24.988043 0.924632 28.0000
pair_coeff 14 36 twogauss -0.297507 22.185489 0.627592 2.88895 28.000000 3.900696 28.0000
pair_coeff 14 45 twogauss 1.45731 23.645797 1.117858 0.301878 25.424169 0.749981 28.0000
pair_coeff 14 46 twogauss 0.015717 19.074797 0.904987 -0.596502 22.659752 1.618152 28.0000
pair_coeff 16 42 twogauss -9.34762 23.497475 0.662990 0 25.000000 5.000000 28.0000
pair_coeff 18 35 twogauss -3.90786 19.010501 1.113883 -7.87775 25.245889 2.211636 28.0000
pair_coeff 19 34 twogauss -8.75614 16.493021 1.276798 -0.985521 24.441055 1.515854 28.0000
pair_coeff 19 35 twogauss -1.23355 19.946768 0.768728 0.922002 21.164039 2.389804 28.0000
pair_coeff 19 36 twogauss 0.192138 15.715661 0.610475 1.15766 20.525120 3.453707 28.0000
pair_coeff 19 37 twogauss -4.16612 12.027462 0.784070 0.030132 18.412552 1.593335 28.0000
pair_coeff 19 40 twogauss -0.855693 16.201973 0.254557 -0.240591 19.608264 2.015151 28.0000
pair_coeff 19 45 twogauss -0.10137 20.748269 0.450872 -0.692757 22.174427 0.973835 28.0000
pair_coeff 19 46 twogauss 1.22881 25.971221 1.191378 0.570462 20.738247 0.988058 28.0000
pair_coeff 19 50 twogauss -0.791337 17.849655 0.550444 -1.23895 20.401300 1.311544 28.0000
pair_coeff 22 37 twogauss -0.575949 23.861721 1.058809 -0.527868 24.270738 0.314955 28.0000
pair_coeff 22 40 twogauss -0.173817 22.270040 0.289884 0 22.880688 1.669355 28.0000
pair_coeff 22 42 twogauss -0.856716 19.517266 0.258691 -4.14482 22.087983 1.722819 28.0000
pair_coeff 22 45 twogauss -0.995007 18.412831 0.564220 -1.05583 20.172846 0.500573 28.0000
pair_coeff 22 50 twogauss -0.314805 18.460373 0.283228 -0.100161 18.914961 1.226987 28.0000
pair_coeff 24 34 twogauss -1.71343 21.253442 0.476541 -1.26089 24.132336 1.205090 28.0000
pair_coeff 24 36 twogauss -1.0895 20.929366 0.518705 -1.97737 23.987295 0.831550 28.0000
pair_coeff 24 37 twogauss -0.773574 18.263164 0.495868 -0.678528 19.684835 0.647743 28.0000
pair_coeff 24 40 twogauss -0.756555 16.551061 0.252800 0.33945 18.826695 1.171631 28.0000
pair_coeff 24 42 twogauss -1.17738 18.523981 0.536066 -0.786222 20.984654 1.960316 28.0000
pair_coeff 24 45 twogauss -0.9951 18.412006 0.630809 -0.698151 19.981524 1.888496 28.0000
pair_coeff 25 45 twogauss 0.020181 21.773239 0.409057 -1.80095 22.639518 1.049292 28.0000
pair_coeff 25 46 twogauss -1.08819 22.724482 0.794173 -1.91617 25.306107 1.595931 28.0000
pair_coeff 30 52 twogauss -1.62052 17.831959 0.478292 0 25.000000 5.000000 28.0000
pair_coeff 30 53 twogauss -0.948414 22.733825 0.328286 -0.54684 24.266501 0.518945 28.0000
pair_coeff 30 80 twogauss -1.3644 22.821303 0.342902 3.74678 27.055754 1.641627 28.0000
pair_coeff 30 81 twogauss -0.223572 22.971740 0.651389 -9.2243 25.576377 1.847076 28.0000
pair_coeff 30 88 twogauss -0.415803 15.635252 0.314928 1.32079 23.257890 3.476792 28.0000
pair_coeff 30 90 twogauss -0.045663 16.670393 0.287953 0.568416 21.093933 3.308965 28.0000
pair_coeff 30 99 twogauss -0.698895 19.357745 0.702584 -2.12691 22.713810 1.569464 28.0000
pair_coeff 31 80 twogauss -0.117552 18.856581 0.247775 -1.04476 20.786825 1.865176 28.0000
pair_coeff 31 81 twogauss -0.549723 15.604018 0.636394 4.86874 18.371620 1.909561 28.0000
pair_coeff 31 87 twogauss -0.072261 23.389890 0.284461 4.6381 25.190318 2.260119 28.0000
pair_coeff 31 88 twogauss -1.01463 20.510079 0.710735 0 25.000000 5.000000 28.0000
pair_coeff 31 89 twogauss -1.7126 15.729226 0.845422 -0.590736 19.111476 0.693509 28.0000
pair_coeff 31 91 twogauss -0.450771 22.968334 0.301490 -1.62462 25.184845 1.738154 28.0000
pair_coeff 31 98 twogauss -0.027249 20.650873 0.350967 -0.949158 22.742213 1.589414 28.0000
pair_coeff 31 99 twogauss -0.079608 19.098666 0.441636 -1.05732 21.748028 1.628417 28.0000
pair_coeff 32 74 twogauss -1.13283 25.825060 2.458546 -2.68258 16.091117 0.735834 28.0000
pair_coeff 32 75 twogauss -0.936231 17.575645 0.415501 1.34618 19.626410 1.078400 28.0000
pair_coeff 32 79 twogauss -0.296019 19.225233 0.548971 3.79691 21.503751 1.397813 28.0000
pair_coeff 32 80 twogauss 0.230733 16.620752 0.349201 0.287277 18.687422 0.831907 28.0000
pair_coeff 32 81 twogauss -0.050592 12.824374 0.287344 -0.736281 15.011028 1.128660 28.0000
pair_coeff 32 82 twogauss -1.02793 18.796564 0.649842 -0.027156 20.721034 0.858662 28.0000
pair_coeff 32 89 twogauss -6.46192 20.205813 0.856801 -21.9792 25.385921 2.637577 28.0000
pair_coeff 32 98 twogauss -1.10493 20.975922 0.910311 -1.45498 23.378835 1.062458 28.0000
pair_coeff 32 102 twogauss -0.171399 21.608798 0.690734 -0.93 25.803703 1.915375 28.0000
pair_coeff 33 80 twogauss -1.97504 19.393748 0.686435 -0.91419 21.097789 0.715117 28.0000
pair_coeff 33 89 twogauss -0.555117 22.857027 0.196257 -10.5023 24.769212 2.092271 28.0000
pair_coeff 33 91 twogauss -0.569625 21.658145 0.411671 -1.74989 23.386075 1.050692 28.0000
pair_coeff 33 100 twogauss -1.55915 17.661612 1.211519 -1.0961 20.971395 0.907494 28.0000
pair_coeff 34 48 twogauss -0.652209 23.297751 0.783783 17.1345 26.188421 2.250831 28.0000
pair_coeff 35 48 twogauss -0.434031 23.027388 0.410288 -5.00414 25.189199 1.636878 28.0000
pair_coeff 38 41 twogauss -1.35399 14.685920 1.090471 -0.887313 15.131095 0.259100 28.0000
pair_coeff 38 42 twogauss -0.164238 21.198139 1.666728 -0.885453 22.528189 0.365151 28.0000
pair_coeff 38 43 twogauss -1.17506 20.726023 0.339972 -1.02263 23.207139 2.181431 28.0000
pair_coeff 38 44 twogauss -1.73129 12.519944 0.502221 -0.465 15.090641 2.273999 28.0000
pair_coeff 38 45 twogauss -1.71771 20.487668 0.664496 -1.02728 22.942062 0.537189 28.0000
pair_coeff 38 46 twogauss -1.00765 20.330221 1.236370 -0.885825 22.751894 2.852877 28.0000
pair_coeff 38 47 twogauss -1.31809 9.517793 0.387723 -12.0854 18.833220 3.695509 28.0000
pair_coeff 38 49 twogauss -1.68609 13.677284 0.780528 -0.465 19.918829 3.339173 28.0000
pair_coeff 39 41 twogauss -0.653325 13.675180 0.534011 -0.196416 17.431504 3.735545 28.0000
pair_coeff 39 42 twogauss -0.509826 19.250812 0.462703 -0.410595 20.626377 1.045332 28.0000
pair_coeff 39 45 twogauss -0.93 22.084252 2.604563 -1.47303 21.008560 1.352577 28.0000
pair_coeff 39 46 twogauss -3.63249 17.400164 0.706807 -4.14492 26.106860 2.021887 28.0000
pair_coeff 39 47 twogauss -0.900984 15.903862 0.484202 -4.74932 22.220302 2.967117 28.0000
pair_coeff 39 48 twogauss -2.82897 6.898388 0.222028 -8.74442 9.956341 0.783933 28.0000
pair_coeff 39 100 twogauss -1.81908 15.269110 0.610088 0 25.000000 5.000000 28.0000
pair_coeff 39 101 twogauss -1.17794 16.942161 0.297004 -1.44894 18.119075 0.860146 28.0000
pair_coeff 40 44 twogauss 0.024366 23.610976 0.257939 6.23184 25.914021 1.690769 28.0000
pair_coeff 40 48 twogauss -1.06383 17.148836 0.290157 -5.19461 26.925543 0.757493 28.0000
pair_coeff 40 100 twogauss -0.712938 20.010060 0.656733 0 25.000000 5.000000 28.0000
pair_coeff 41 41 twogauss -0.725307 24.629585 1.365597 -0.423708 21.376784 1.250571 28.0000
pair_coeff 41 44 twogauss -3.31071 20.251825 0.582148 0 25.000000 5.000000 28.0000
pair_coeff 41 101 twogauss -1.65773 22.662357 0.611027 -12.7875 26.554190 2.233604 28.0000
pair_coeff 42 44 twogauss -8.6822 18.138743 1.256911 0 25.000000 5.000000 28.0000
pair_coeff 42 48 twogauss -1.94621 18.178635 0.251354 -1.84252 18.976166 1.014898 28.0000
pair_coeff 42 101 twogauss -2.31496 21.452467 0.666569 -4.52352 24.576980 1.046261 28.0000
pair_coeff 43 44 twogauss -5.78702 22.668289 0.744498 -7.13496 26.336704 0.973126 28.0000
pair_coeff 47 50 twogauss -7.62749 23.908193 1.307910 0 25.000000 5.000000 28.0000
pair_coeff 48 50 twogauss -0.583668 20.160630 0.386738 0 25.000000 5.000000 28.0000
pair_coeff 50 100 twogauss -0.035712 16.852613 0.876164 -5.44227 23.686945 1.168740 28.0000
pair_coeff 50 101 twogauss -0.195672 23.220421 0.345793 -0.598362 24.158925 0.875167 28.0000
pair_coeff 51 80 twogauss -1.95095 23.651336 0.877829 0 25.000000 5.000000 28.0000
pair_coeff 51 90 twogauss -4.37416 22.422259 1.102271 -0.865737 26.279649 0.811873 28.0000
pair_coeff 51 100 twogauss -0.562464 19.075113 0.359862 -2.76554 19.164480 1.407533 28.0000
pair_coeff 52 80 twogauss -1.14009 22.680463 0.525634 -2.2201 25.682541 2.461347 28.0000
pair_coeff 52 88 twogauss -2.54755 16.234991 0.497474 -6.49893 21.814203 3.090321 28.0000
pair_coeff 52 89 twogauss -2.20763 15.077986 0.920796 -2.63832 20.822756 3.698675 28.0000
pair_coeff 52 90 twogauss -0.289416 13.831934 0.158090 -6.29722 17.678815 2.273839 28.0000
pair_coeff 52 91 twogauss -0.895032 18.542613 0.658459 -0.67146 20.739784 1.633429 28.0000
pair_coeff 52 99 twogauss -0.976686 19.411800 0.629874 -2.86068 20.892015 1.124866 28.0000
pair_coeff 52 100 twogauss -0.973524 17.663845 0.438701 -1.58184 20.693899 2.264406 28.0000
pair_coeff 53 80 twogauss -2.11556 23.450816 0.854444 -2.04646 25.782817 0.689899 28.0000
pair_coeff 53 87 twogauss -10.7636 19.549261 1.202576 -15.1039 28.000000 2.611739 28.0000
pair_coeff 53 90 twogauss -0.273978 15.622749 0.186985 -0.416826 18.420320 2.725759 28.0000
pair_coeff 53 91 twogauss -0.621333 19.160574 0.450666 0.389205 20.614658 1.558026 28.0000
pair_coeff 53 99 twogauss -1.20323 22.765770 0.847535 -0.749673 24.418730 0.642990 28.0000
pair_coeff 53 100 twogauss -0.483228 20.247315 0.512258 0.276117 22.050195 2.193509 28.0000
pair_coeff 54 74 twogauss -0.701778 18.180229 0.701662 -5.39428 20.224448 2.537634 28.0000
pair_coeff 54 75 twogauss -0.746511 11.682182 0.387482 -2.85324 12.190960 2.048877 28.0000
pair_coeff 54 79 twogauss -0.108531 22.864752 0.458980 -2.65245 23.732289 1.018850 28.0000
pair_coeff 54 81 twogauss 0.188976 21.567558 0.978719 -0.907215 23.614689 0.931205 28.0000
pair_coeff 54 82 twogauss -1.40774 21.372040 0.738730 0 25.000000 5.000000 28.0000
pair_coeff 54 90 twogauss -1.53376 19.583434 0.267310 -3.5327 25.954951 1.102089 28.0000
pair_coeff 54 91 twogauss -0.181164 17.676918 0.212025 -1.27847 19.748108 0.951740 28.0000
pair_coeff 54 98 twogauss -0.658719 23.746545 0.646624 1.1917 25.691972 1.369882 28.0000
pair_coeff 55 75 twogauss -0.143127 20.911311 0.349011 0.790779 23.010021 2.151273 28.0000
pair_coeff 55 80 twogauss -2.65868 23.815682 0.490999 -20.7648 25.650324 1.920354 28.0000
pair_coeff 55 89 twogauss -2.9268 22.233756 1.019605 -5.05306 26.246834 1.455081 28.0000
pair_coeff 55 91 twogauss -0.875595 21.117040 0.591548 -10.0022 21.416257 2.844213 28.0000
pair_coeff 56 80 twogauss -9.01468 18.231860 0.672874 -24.18 24.627179 3.333985 28.0000
pair_coeff 56 81 twogauss -9.74063 23.677750 0.564231 -20.325 26.916726 1.259934 28.0000
pair_coeff 56 91 twogauss -2.7409 23.852170 1.009014 -0.663276 26.598073 0.854282 28.0000
pair_coeff 57 75 twogauss -5.6332 8.732918 0.554377 -5.1084 16.223624 1.981145 28.0000
pair_coeff 57 91 twogauss -8.92754 22.958319 0.597517 -24.18 27.426805 1.776017 28.0000
pair_coeff 58 74 twogauss -5.41855 16.643697 2.377693 -3.67201 21.415125 1.424852 28.0000
pair_coeff 58 76 twogauss -4.42382 21.493392 0.852300 -1.92947 25.037513 0.759916 28.0000
pair_coeff 58 82 twogauss -1.70171 23.538710 0.635768 0 25.000000 5.000000 28.0000
pair_coeff 58 90 twogauss -1.10884 17.253152 0.294679 2.21061 23.296310 2.665171 28.0000
pair_coeff 58 91 twogauss -2.55992 22.012332 0.998483 -1.21811 24.097665 0.544166 28.0000
pair_coeff 58 92 twogauss -1.56993 20.059108 0.626026 0 25.000000 5.000000 28.0000
pair_coeff 59 74 twogauss 2.96986 18.865904 2.989912 -1.17589 21.821813 0.906463 28.0000
pair_coeff 59 75 twogauss -1.38942 5.336541 0.347599 -0.612498 6.746277 0.986736 28.0000
pair_coeff 59 76 twogauss -1.22723 18.225995 0.569663 0 25.000000 5.000000 28.0000
pair_coeff 59 79 twogauss -2.38703 22.204875 0.807044 0 25.000000 5.000000 28.0000
pair_coeff 59 82 twogauss -0.719076 17.227231 0.796530 0 25.000000 5.000000 28.0000
pair_coeff 59 83 twogauss -1.38793 19.538587 0.655458 0 25.000000 5.000000 28.0000
pair_coeff 59 88 twogauss -7.37165 22.625841 0.762162 -14.8601 25.528916 1.714438 28.0000
pair_coeff 59 92 twogauss -0.739164 16.524687 0.253306 -1.16482 15.918259 0.318107 28.0000
pair_coeff 59 98 twogauss -0.056079 23.996389 0.574196 1.18789 25.436147 1.635435 28.0000
pair_coeff 60 75 twogauss -0.927768 10.417405 0.211342 -15.6932 13.211162 2.704675 28.0000
pair_coeff 75 82 twogauss -0.284115 22.262452 0.772251 0 25.000000 5.000000 28.0000
pair_coeff 75 83 twogauss -0.655929 23.741323 0.560529 0 25.000000 5.000000 28.0000
pair_coeff 75 92 twogauss -1.30247 20.224495 0.305830 0 25.000000 5.000000 28.0000
pair_coeff 76 82 twogauss -1.01203 22.833064 0.413529 0 25.000000 5.000000 28.0000
pair_coeff 76 83 twogauss -1.06671 6.623071 0.324050 0 25.000000 5.000000 28.0000
pair_coeff 76 84 twogauss -1.87023 20.792529 0.514615 0 25.000000 5.000000 28.0000
pair_coeff 76 85 twogauss -2.78795 14.049382 1.147668 -3.49066 18.553878 1.303140 28.0000
pair_coeff 76 92 twogauss -0.996867 14.026519 0.321458 0 25.000000 5.000000 28.0000
pair_coeff 76 93 twogauss -0.964503 12.010690 0.731987 0 25.000000 5.000000 28.0000
pair_coeff 76 105 twogauss -0.38781 20.966348 0.441562 0 25.000000 5.000000 28.0000
pair_coeff 77 83 twogauss 0.211668 18.737587 0.767115 0 25.000000 5.000000 28.0000
pair_coeff 77 84 twogauss -1.64861 20.048725 0.640418 0 25.000000 5.000000 28.0000
pair_coeff 77 93 twogauss -1.28861 12.281810 0.551904 0 25.000000 5.000000 28.0000
pair_coeff 77 94 twogauss -1.17013 13.721332 0.473463 0 25.000000 5.000000 28.0000
pair_coeff 77 95 twogauss -1.55431 22.636248 1.013141 0 25.000000 5.000000 28.0000
pair_coeff 78 82 twogauss 0.004836 23.225783 0.668205 -0.96813 24.962427 0.981349 28.0000
pair_coeff 78 83 twogauss -0.359073 21.329505 1.023761 0 25.000000 5.000000 28.0000
pair_coeff 78 93 twogauss -0.972036 20.223759 0.457412 -1.03472 21.206304 0.746547 28.0000
pair_coeff 78 103 twogauss -0.201531 23.064890 0.392082 -0.000279 24.372936 1.114546 28.0000
pair_coeff 79 81 twogauss 1.43787 22.363912 1.044752 0 25.000000 5.000000 28.0000
pair_coeff 79 82 twogauss 0.779154 23.525456 0.914155 0 25.000000 5.000000 28.0000
pair_coeff 79 98 twogauss -0.328104 20.778733 0.524064 1.83387 22.921820 1.524903 28.0000
pair_coeff 79 102 twogauss -0.970455 22.172029 0.421740 -0.93 23.505057 0.693048 28.0000
pair_coeff 79 103 twogauss -0.93 23.048075 0.797873 0 25.000000 5.000000 28.0000
pair_coeff 80 99 twogauss -1.40198 19.710185 0.741448 0 25.000000 5.000000 28.0000
pair_coeff 81 81 twogauss -0.393111 22.443175 0.349779 -0.393297 23.567475 1.320873 28.0000
pair_coeff 81 87 twogauss 1.61197 22.279679 0.955393 4.49729 26.946268 1.702800 28.0000
pair_coeff 81 91 twogauss -0.650349 23.044156 0.809267 -0.962457 24.846718 0.547785 28.0000
pair_coeff 81 98 twogauss -0.347913 19.784128 0.636169 -1.49842 17.865135 0.879141 28.0000
pair_coeff 81 99 twogauss -0.530379 9.863718 0.254344 -0.831885 11.648589 0.721498 28.0000
pair_coeff 81 100 twogauss -1.80048 23.290942 0.516294 -0.869364 25.224376 0.746076 28.0000
pair_coeff 81 101 twogauss -0.361119 22.805834 0.233739 -0.494667 24.288499 1.059686 28.0000
pair_coeff 82 97 twogauss -0.113274 23.281126 0.520581 -1.71892 24.864265 2.128226 28.0000
pair_coeff 82 98 twogauss -0.972594 14.668932 0.309523 -1.48754 17.497701 1.262083 28.0000
pair_coeff 82 103 twogauss 1.11563 18.228955 1.012682 1.104 23.010989 0.794549 28.0000
pair_coeff 82 105 twogauss 0.900891 23.902219 0.817102 0.583668 25.434098 0.574076 28.0000
pair_coeff 83 104 twogauss -0.815238 21.711292 0.645007 -0.435426 23.578491 0.586292 28.0000
pair_coeff 83 106 twogauss 1.19496 18.729952 0.793267 0.079515 20.089487 0.495291 28.0000
pair_coeff 93 104 twogauss 0.049383 19.414597 0.231038 0.577902 19.955427 1.249738 28.0000
pair_coeff 93 106 twogauss -2.54997 13.120308 0.751995 0 25.000000 5.000000 28.0000
pair_coeff 93 108 twogauss 1.18036 22.038434 0.698215 0 25.000000 5.000000 28.0000
pair_coeff 94 104 twogauss -0.654534 23.156795 0.887915 -1.06801 27.155481 0.627858 28.0000
pair_coeff 94 106 twogauss -1.03435 16.488815 0.598326 0 25.000000 5.000000 28.0000
pair_coeff 94 107 twogauss -0.669228 15.419425 0.701673 0 25.000000 5.000000 28.0000
pair_coeff 94 108 twogauss -1.60434 17.034909 0.441102 0 25.000000 5.000000 28.0000
pair_coeff 94 109 twogauss -0.397575 16.617402 0.632887 -0.265329 17.718652 0.425830 28.0000
pair_coeff 95 107 twogauss -1.92436 14.314638 0.962949 0 25.000000 5.000000 28.0000
pair_coeff 95 108 twogauss -0.646443 20.970495 0.307314 7.23977 23.484788 1.207296 28.0000
pair_coeff 95 109 twogauss -2.67952 14.665136 0.774771 0 25.000000 5.000000 28.0000
pair_coeff 98 103 twogauss 1.74068 21.592186 1.354089 -0.560604 28.000000 1.569716 28.0000
pair_coeff 99 101 twogauss -0.342426 22.726095 1.024231 -0.234267 23.760822 0.329055 28.0000
pair_coeff 99 102 twogauss 0.856716 19.733126 0.957680 0.22134 22.786179 0.723754 28.0000
pair_coeff 100 101 twogauss -2.07725 20.727036 0.817913 -0.748371 25.454538 0.729044 28.0000
pair_coeff 101 101 twogauss -1.09163 17.478993 0.657058 0 25.000000 5.000000 28.0000
pair_coeff 102 102 twogauss -1.37091 12.055183 0.564479 0 25.000000 5.000000 28.0000
pair_coeff 102 103 twogauss -1.4202 22.393417 0.169215 -0.93 25.114497 1.049051 28.0000
pair_coeff 103 103 twogauss -0.847881 13.585810 0.676389 0 25.000000 5.000000 28.0000
pair_coeff 103 104 twogauss -0.039339 20.557415 0.832412 0.434961 23.923172 1.013378 28.0000
pair_coeff 103 105 twogauss 1.32041 23.441072 0.899423 -0.446121 26.486209 0.666563 28.0000
pair_coeff 104 104 twogauss -1.94547 17.899679 0.786528 0 25.000000 5.000000 28.0000
pair_coeff 107 108 twogauss -1.20268 21.875799 0.883969 0 25.000000 5.000000 28.0000
pair_coeff 107 110 twogauss -1.80922 22.750828 1.204680 -2.0925 26.412043 1.537497 28.0000
pair_coeff 108 109 twogauss -1.66145 21.824676 0.887683 0 25.000000 5.000000 28.0000
pair_coeff 109 110 twogauss -0.946833 22.026556 1.195932 -1.6275 25.720717 1.674786 28.0000
pair_coeff  110  110  twogauss  -3.469150  12.566880  0.941713  -1.827150  12.642973  0.562195  28.0000
pair_coeff  111  111  twogauss  20.00000 25.0000 2.0000 -5.854300 12.506627 1.179487 28.0000
pair_coeff  111  112  twogauss  0.00000 25.0000 2.0000 -5.250000 17.659294 1.464376 28.0000
pair_coeff  112  112  twogauss  20.00000 25.0000 2.0000 -7.023300 11.111669 1.107631 28.0000
pair_coeff  113  113  twogauss  20.00000 25.0000 2.0000 -3.501900 11.169661 0.437666 28.0000
pair_coeff  114  114  twogauss  -1.346500  10.888567  0.337245  -1.034550  10.909430  0.343725  28.0000
pair_coeff  115  115  twogauss  -2.485800  11.229668  0.529935  -2.461500  11.360493  0.612099  28.0000
pair_coeff  116  116  twogauss  20.00000 25.0000 0.9000 0.0 25.0000 28.0000
pair_coeff  117  117  twogauss  20.00000 25.0000 2.0000 -5.770700 11.103605 1.003575 28.0000
pair_coeff  118  118  twogauss  20.00000 25.0000 0.9000 0.0 25.0000 28.0000
pair_coeff  119  119  twogauss  -4.363100  10.489175  1.283778  -1.438450  10.749129  0.647175  28.0000
pair_coeff  119  120  twogauss  20.00000 25.0000 2.0000 -5.906200 13.864390 1.284622 28.0000
pair_coeff  120  122  twogauss  -1.500000  8.686128  0.336293  -0.717350  11.043156  0.630337  28.0000

#ACE2
pair_coeff 144 147 twogauss -1.3351 11.122978 0.510063 -0.0000 25.000000 5.000000 25.0000
pair_coeff 172 192 twogauss -11.2000 18.206766 0.832011 -0.0000 25.000000 5.000000 25.0000
pair_coeff 190 191 twogauss -0.9860 10.875143 0.220669 -0.0000 25.000000 5.000000 25.0000
pair_coeff 190 192 twogauss -1.4123 14.083726 0.309440 -0.0000 25.000000 5.000000 25.0000
pair_coeff 190 193 twogauss -0.9548 16.724577 0.264669 -0.0000 25.000000 5.000000 25.0000
pair_coeff 190 196 twogauss -1.4303 18.627864 0.315931 -0.0000 25.000000 5.000000 25.0000
pair_coeff 191 191 twogauss -0.8416 15.682872 0.191393 -0.0000 25.000000 5.000000 25.0000
pair_coeff 191 193 twogauss -0.8037 16.678048 0.292727 -0.0000 25.000000 5.000000 25.0000
pair_coeff 193 193 twogauss -0.8813 15.887491 0.369242 -0.0000 25.000000 5.000000 25.0000
pair_coeff 196 196 twogauss -1.2936 17.575011 0.281876 -0.0000 25.000000 5.000000 25.0000
