#S
pair_coeff 5 50 twogauss -1.33492 22.258137 0.980435 -2.30877 25.073048 0.721680 28.0000
pair_coeff 5 52 twogauss -1.4926 13.740115 0.513524 -1.16501 16.267136 0.745490 28.0000
pair_coeff 5 53 twogauss -0.51374 20.163395 0.673948 -1.36867 22.850471 0.604473 28.0000
pair_coeff 5 80 twogauss -0.46291 20.843412 0.173389 -7.0125 25.445183 2.648284 28.0000
pair_coeff 5 81 twogauss -1.72159 21.695591 0.685198 -1.05468 23.780172 0.848617 28.0000
pair_coeff 5 88 twogauss -1.11027 19.701919 1.482410 -2.41978 25.016665 1.962783 28.0000
pair_coeff 5 100 twogauss -0.418285 19.616914 1.222357 -3.37756 24.231333 1.153653 28.0000
pair_coeff 10 45 twogauss -1.4841 20.637803 0.669374 -0.35734 22.220749 0.575265 28.0000
pair_coeff 10 46 twogauss -3.46503 22.947631 0.334906 -21.0098 26.579244 1.990379 28.0000
pair_coeff 12 36 twogauss -0.038675 19.259647 0.377819 -0.9707 20.792688 1.567598 28.0000
pair_coeff 12 44 twogauss -1.31869 22.494647 0.861508 -2.57558 25.864900 1.206510 28.0000
pair_coeff 12 45 twogauss -0.94503 15.084975 0.394510 -1.54479 16.812501 0.643888 28.0000
pair_coeff 12 46 twogauss -1.88564 15.355999 1.060016 -1.89924 18.591919 1.016442 28.0000
pair_coeff 13 34 twogauss -3.84566 19.821822 1.427765 -13.1061 28.000000 1.610759 28.0000
pair_coeff 13 37 twogauss -2.62777 17.680260 0.834161 0 24.536558 2.691563 28.0000
pair_coeff 13 50 twogauss -0.32334 23.127359 0.581813 -0.47719 24.988043 0.924632 28.0000
pair_coeff 14 36 twogauss -0.271915 22.185489 0.627592 2.64044 28.000000 3.900696 28.0000
pair_coeff 14 45 twogauss 1.33195 23.645797 1.117858 0.27591 25.424169 0.749981 28.0000
pair_coeff 14 46 twogauss 0.014365 19.074797 0.904987 -0.54519 22.659752 1.618152 28.0000
pair_coeff 16 42 twogauss -8.54352 23.497475 0.662990 0 25.000000 5.000000 28.0000
pair_coeff 18 35 twogauss -3.5717 19.010501 1.113883 -7.2001 25.245889 2.211636 28.0000
pair_coeff 19 34 twogauss -8.00292 16.493021 1.276798 -0.900745 24.441055 1.515854 28.0000
pair_coeff 19 35 twogauss -1.12744 19.946768 0.768728 0.84269 21.164039 2.389804 28.0000
pair_coeff 19 36 twogauss 0.17561 15.715661 0.610475 1.05808 20.525120 3.453707 28.0000
pair_coeff 19 37 twogauss -3.80775 12.027462 0.784070 0.02754 18.412552 1.593335 28.0000
pair_coeff 19 40 twogauss -0.782085 16.201973 0.254557 -0.219895 19.608264 2.015151 28.0000
pair_coeff 19 45 twogauss -0.09265 20.748269 0.450872 -0.633165 22.174427 0.973835 28.0000
pair_coeff 19 46 twogauss 1.1231 25.971221 1.191378 0.52139 20.738247 0.988058 28.0000
pair_coeff 19 50 twogauss -0.723265 17.849655 0.550444 -1.13237 20.401300 1.311544 28.0000
pair_coeff 22 37 twogauss -0.526405 23.861721 1.058809 -0.48246 24.270738 0.314955 28.0000
pair_coeff 22 40 twogauss -0.158865 22.270040 0.289884 0 22.880688 1.669355 28.0000
pair_coeff 22 42 twogauss -0.78302 19.517266 0.258691 -3.78828 22.087983 1.722819 28.0000
pair_coeff 22 45 twogauss -0.909415 18.412831 0.564220 -0.965005 20.172846 0.500573 28.0000
pair_coeff 22 50 twogauss -0.287725 18.460373 0.283228 -0.091545 18.914961 1.226987 28.0000
pair_coeff 24 34 twogauss -1.56604 21.253442 0.476541 -1.15243 24.132336 1.205090 28.0000
pair_coeff 24 36 twogauss -0.995775 20.929366 0.518705 -1.80727 23.987295 0.831550 28.0000
pair_coeff 24 37 twogauss -0.70703 18.263164 0.495868 -0.62016 19.684835 0.647743 28.0000
pair_coeff 24 40 twogauss -0.691475 16.551061 0.252800 0.31025 18.826695 1.171631 28.0000
pair_coeff 24 42 twogauss -1.0761 18.523981 0.536066 -0.71859 20.984654 1.960316 28.0000
pair_coeff 24 45 twogauss -0.9095 18.412006 0.630809 -0.638095 19.981524 1.888496 28.0000
pair_coeff 25 45 twogauss 0.018445 21.773239 0.409057 -1.64603 22.639518 1.049292 28.0000
pair_coeff 25 46 twogauss -0.994585 22.724482 0.794173 -1.75134 25.306107 1.595931 28.0000
pair_coeff 30 52 twogauss -1.48112 17.831959 0.478292 0 25.000000 5.000000 28.0000
pair_coeff 30 53 twogauss -0.86683 22.733825 0.328286 -0.4998 24.266501 0.518945 28.0000
pair_coeff 30 80 twogauss -1.24704 22.821303 0.342902 3.42448 27.055754 1.641627 28.0000
pair_coeff 30 81 twogauss -0.20434 22.971740 0.651389 -8.43081 25.576377 1.847076 28.0000
pair_coeff 30 88 twogauss -0.380035 15.635252 0.314928 1.20717 23.257890 3.476792 28.0000
pair_coeff 30 90 twogauss -0.041735 16.670393 0.287953 0.51952 21.093933 3.308965 28.0000
pair_coeff 30 99 twogauss -0.638775 19.357745 0.702584 -1.94395 22.713810 1.569464 28.0000
pair_coeff 31 80 twogauss -0.10744 18.856581 0.247775 -0.95489 20.786825 1.865176 28.0000
pair_coeff 31 81 twogauss -0.502435 15.604018 0.636394 4.44992 18.371620 1.909561 28.0000
pair_coeff 31 87 twogauss -0.066045 23.389890 0.284461 4.23912 25.190318 2.260119 28.0000
pair_coeff 31 88 twogauss -0.92735 20.510079 0.710735 0 25.000000 5.000000 28.0000
pair_coeff 31 89 twogauss -1.56527 15.729226 0.845422 -0.53992 19.111476 0.693509 28.0000
pair_coeff 31 91 twogauss -0.411995 22.968334 0.301490 -1.48486 25.184845 1.738154 28.0000
pair_coeff 31 98 twogauss -0.024905 20.650873 0.350967 -0.86751 22.742213 1.589414 28.0000
pair_coeff 31 99 twogauss -0.07276 19.098666 0.441636 -0.966365 21.748028 1.628417 28.0000
pair_coeff 32 74 twogauss -1.03538 25.825060 2.458546 -2.45182 16.091117 0.735834 28.0000
pair_coeff 32 75 twogauss -0.855695 17.575645 0.415501 1.23037 19.626410 1.078400 28.0000
pair_coeff 32 79 twogauss -0.270555 19.225233 0.548971 3.47029 21.503751 1.397813 28.0000
pair_coeff 32 80 twogauss 0.210885 16.620752 0.349201 0.262565 18.687422 0.831907 28.0000
pair_coeff 32 81 twogauss -0.04624 12.824374 0.287344 -0.672945 15.011028 1.128660 28.0000
pair_coeff 32 82 twogauss -0.939505 18.796564 0.649842 -0.02482 20.721034 0.858662 28.0000
pair_coeff 32 89 twogauss -5.90605 20.205813 0.856801 -20.0885 25.385921 2.637577 28.0000
pair_coeff 32 98 twogauss -1.00988 20.975922 0.910311 -1.32983 23.378835 1.062458 28.0000
pair_coeff 32 102 twogauss -0.156655 21.608798 0.690734 -0.85 25.803703 1.915375 28.0000
pair_coeff 33 80 twogauss -1.80514 19.393748 0.686435 -0.83555 21.097789 0.715117 28.0000
pair_coeff 33 89 twogauss -0.507365 22.857027 0.196257 -9.59888 24.769212 2.092271 28.0000
pair_coeff 33 91 twogauss -0.520625 21.658145 0.411671 -1.59936 23.386075 1.050692 28.0000
pair_coeff 33 100 twogauss -1.42502 17.661612 1.211519 -1.00181 20.971395 0.907494 28.0000
pair_coeff 34 48 twogauss -0.596105 23.297751 0.783783 15.6606 26.188421 2.250831 28.0000
pair_coeff 35 48 twogauss -0.396695 23.027388 0.410288 -4.57368 25.189199 1.636878 28.0000
pair_coeff 38 41 twogauss -1.23751 14.685920 1.090471 -0.810985 15.131095 0.259100 28.0000
pair_coeff 38 42 twogauss -0.15011 21.198139 1.666728 -0.809285 22.528189 0.365151 28.0000
pair_coeff 38 43 twogauss -1.07398 20.726023 0.339972 -0.93466 23.207139 2.181431 28.0000
pair_coeff 38 44 twogauss -1.58236 12.519944 0.502221 -0.425 15.090641 2.273999 28.0000
pair_coeff 38 45 twogauss -1.56995 20.487668 0.664496 -0.93891 22.942062 0.537189 28.0000
pair_coeff 38 46 twogauss -0.920975 20.330221 1.236370 -0.809625 22.751894 2.852877 28.0000
pair_coeff 38 47 twogauss -1.2047 9.517793 0.387723 -11.0457 18.833220 3.695509 28.0000
pair_coeff 38 49 twogauss -1.54105 13.677284 0.780528 -0.425 19.918829 3.339173 28.0000
pair_coeff 39 41 twogauss -0.597125 13.675180 0.534011 -0.17952 17.431504 3.735545 28.0000
pair_coeff 39 42 twogauss -0.46597 19.250812 0.462703 -0.375275 20.626377 1.045332 28.0000
pair_coeff 39 45 twogauss -0.85 22.084252 2.604563 -1.34631 21.008560 1.352577 28.0000
pair_coeff 39 46 twogauss -3.32001 17.400164 0.706807 -3.78836 26.106860 2.021887 28.0000
pair_coeff 39 47 twogauss -0.82348 15.903862 0.484202 -4.34078 22.220302 2.967117 28.0000
pair_coeff 39 48 twogauss -2.58561 6.898388 0.222028 -7.99221 9.956341 0.783933 28.0000
pair_coeff 39 100 twogauss -1.6626 15.269110 0.610088 0 25.000000 5.000000 28.0000
pair_coeff 39 101 twogauss -1.07661 16.942161 0.297004 -1.3243 18.119075 0.860146 28.0000
pair_coeff 40 44 twogauss 0.02227 23.610976 0.257939 5.69576 25.914021 1.690769 28.0000
pair_coeff 40 48 twogauss -0.972315 17.148836 0.290157 -4.74776 26.925543 0.757493 28.0000
pair_coeff 40 100 twogauss -0.65161 20.010060 0.656733 0 25.000000 5.000000 28.0000
pair_coeff 41 41 twogauss -0.662915 24.629585 1.365597 -0.38726 21.376784 1.250571 28.0000
pair_coeff 41 44 twogauss -3.02591 20.251825 0.582148 0 25.000000 5.000000 28.0000
pair_coeff 41 101 twogauss -1.51512 22.662357 0.611027 -11.6875 26.554190 2.233604 28.0000
pair_coeff 42 44 twogauss -7.93534 18.138743 1.256911 0 25.000000 5.000000 28.0000
pair_coeff 42 48 twogauss -1.77879 18.178635 0.251354 -1.68402 18.976166 1.014898 28.0000
pair_coeff 42 101 twogauss -2.11582 21.452467 0.666569 -4.1344 24.576980 1.046261 28.0000
pair_coeff 43 44 twogauss -5.28921 22.668289 0.744498 -6.5212 26.336704 0.973126 28.0000
pair_coeff 47 50 twogauss -6.97136 23.908193 1.307910 0 25.000000 5.000000 28.0000
pair_coeff 48 50 twogauss -0.53346 20.160630 0.386738 0 25.000000 5.000000 28.0000
pair_coeff 50 100 twogauss -0.03264 16.852613 0.876164 -4.97411 23.686945 1.168740 28.0000
pair_coeff 50 101 twogauss -0.17884 23.220421 0.345793 -0.54689 24.158925 0.875167 28.0000
pair_coeff 51 80 twogauss -1.78313 23.651336 0.877829 0 25.000000 5.000000 28.0000
pair_coeff 51 90 twogauss -3.99789 22.422259 1.102271 -0.791265 26.279649 0.811873 28.0000
pair_coeff 51 100 twogauss -0.51408 19.075113 0.359862 -2.52765 19.164480 1.407533 28.0000
pair_coeff 52 80 twogauss -1.04201 22.680463 0.525634 -2.02912 25.682541 2.461347 28.0000
pair_coeff 52 88 twogauss -2.32841 16.234991 0.497474 -5.93989 21.814203 3.090321 28.0000
pair_coeff 52 89 twogauss -2.01773 15.077986 0.920796 -2.41136 20.822756 3.698675 28.0000
pair_coeff 52 90 twogauss -0.26452 13.831934 0.158090 -5.75552 17.678815 2.273839 28.0000
pair_coeff 52 91 twogauss -0.81804 18.542613 0.658459 -0.6137 20.739784 1.633429 28.0000
pair_coeff 52 99 twogauss -0.89267 19.411800 0.629874 -2.6146 20.892015 1.124866 28.0000
pair_coeff 52 100 twogauss -0.88978 17.663845 0.438701 -1.44576 20.693899 2.264406 28.0000
pair_coeff 53 80 twogauss -1.93358 23.450816 0.854444 -1.87042 25.782817 0.689899 28.0000
pair_coeff 53 87 twogauss -9.83773 19.549261 1.202576 -13.8047 28.000000 2.611739 28.0000
pair_coeff 53 90 twogauss -0.25041 15.622749 0.186985 -0.38097 18.420320 2.725759 28.0000
pair_coeff 53 91 twogauss -0.567885 19.160574 0.450666 0.355725 20.614658 1.558026 28.0000
pair_coeff 53 99 twogauss -1.09973 22.765770 0.847535 -0.685185 24.418730 0.642990 28.0000
pair_coeff 53 100 twogauss -0.44166 20.247315 0.512258 0.252365 22.050195 2.193509 28.0000
pair_coeff 54 74 twogauss -0.64141 18.180229 0.701662 -4.93025 20.224448 2.537634 28.0000
pair_coeff 54 75 twogauss -0.682295 11.682182 0.387482 -2.6078 12.190960 2.048877 28.0000
pair_coeff 54 79 twogauss -0.099195 22.864752 0.458980 -2.42428 23.732289 1.018850 28.0000
pair_coeff 54 81 twogauss 0.17272 21.567558 0.978719 -0.829175 23.614689 0.931205 28.0000
pair_coeff 54 82 twogauss -1.28665 21.372040 0.738730 0 25.000000 5.000000 28.0000
pair_coeff 54 90 twogauss -1.40182 19.583434 0.267310 -3.22881 25.954951 1.102089 28.0000
pair_coeff 54 91 twogauss -0.16558 17.676918 0.212025 -1.1685 19.748108 0.951740 28.0000
pair_coeff 54 98 twogauss -0.602055 23.746545 0.646624 1.08919 25.691972 1.369882 28.0000
pair_coeff 55 75 twogauss -0.130815 20.911311 0.349011 0.722755 23.010021 2.151273 28.0000
pair_coeff 55 80 twogauss -2.42998 23.815682 0.490999 -18.9785 25.650324 1.920354 28.0000
pair_coeff 55 89 twogauss -2.67503 22.233756 1.019605 -4.61839 26.246834 1.455081 28.0000
pair_coeff 55 91 twogauss -0.800275 21.117040 0.591548 -9.14175 21.416257 2.844213 28.0000
pair_coeff 56 80 twogauss -8.23922 18.231860 0.672874 -22.1 24.627179 3.333985 28.0000
pair_coeff 56 81 twogauss -8.90273 23.677750 0.564231 -18.5766 26.916726 1.259934 28.0000
pair_coeff 56 91 twogauss -2.50512 23.852170 1.009014 -0.60622 26.598073 0.854282 28.0000
pair_coeff 57 75 twogauss -5.14862 8.732918 0.554377 -4.66897 16.223624 1.981145 28.0000
pair_coeff 57 91 twogauss -8.15958 22.958319 0.597517 -22.1 27.426805 1.776017 28.0000
pair_coeff 58 74 twogauss -4.95244 16.643697 2.377693 -3.35614 21.415125 1.424852 28.0000
pair_coeff 58 76 twogauss -4.04328 21.493392 0.852300 -1.7635 25.037513 0.759916 28.0000
pair_coeff 58 82 twogauss -1.55533 23.538710 0.635768 0 25.000000 5.000000 28.0000
pair_coeff 58 90 twogauss -1.01345 17.253152 0.294679 2.02045 23.296310 2.665171 28.0000
pair_coeff 58 91 twogauss -2.33971 22.012332 0.998483 -1.11333 24.097665 0.544166 28.0000
pair_coeff 58 92 twogauss -1.43488 20.059108 0.626026 0 25.000000 5.000000 28.0000
pair_coeff 59 74 twogauss 2.71439 18.865904 2.989912 -1.07474 21.821813 0.906463 28.0000
pair_coeff 59 75 twogauss -1.2699 5.336541 0.347599 -0.55981 6.746277 0.986736 28.0000
pair_coeff 59 76 twogauss -1.12166 18.225995 0.569663 0 25.000000 5.000000 28.0000
pair_coeff 59 79 twogauss -2.18169 22.204875 0.807044 0 25.000000 5.000000 28.0000
pair_coeff 59 82 twogauss -0.65722 17.227231 0.796530 0 25.000000 5.000000 28.0000
pair_coeff 59 83 twogauss -1.26854 19.538587 0.655458 0 25.000000 5.000000 28.0000
pair_coeff 59 88 twogauss -6.73752 22.625841 0.762162 -13.5818 25.528916 1.714438 28.0000
pair_coeff 59 92 twogauss -0.67558 16.524687 0.253306 -1.06462 15.918259 0.318107 28.0000
pair_coeff 59 98 twogauss -0.051255 23.996389 0.574196 1.08571 25.436147 1.635435 28.0000
pair_coeff 60 75 twogauss -0.84796 10.417405 0.211342 -14.3432 13.211162 2.704675 28.0000
pair_coeff 75 82 twogauss -0.259675 22.262452 0.772251 0 25.000000 5.000000 28.0000
pair_coeff 75 83 twogauss -0.599505 23.741323 0.560529 0 25.000000 5.000000 28.0000
pair_coeff 75 92 twogauss -1.19043 20.224495 0.305830 0 25.000000 5.000000 28.0000
pair_coeff 76 82 twogauss -0.92497 22.833064 0.413529 0 25.000000 5.000000 28.0000
pair_coeff 76 83 twogauss -0.97495 6.623071 0.324050 0 25.000000 5.000000 28.0000
pair_coeff 76 84 twogauss -1.70935 20.792529 0.514615 0 25.000000 5.000000 28.0000
pair_coeff 76 85 twogauss -2.54813 14.049382 1.147668 -3.19039 18.553878 1.303140 28.0000
pair_coeff 76 92 twogauss -0.911115 14.026519 0.321458 0 25.000000 5.000000 28.0000
pair_coeff 76 93 twogauss -0.881535 12.010690 0.731987 0 25.000000 5.000000 28.0000
pair_coeff 76 105 twogauss -0.35445 20.966348 0.441562 0 25.000000 5.000000 28.0000
pair_coeff 77 83 twogauss 0.19346 18.737587 0.767115 0 25.000000 5.000000 28.0000
pair_coeff 77 84 twogauss -1.50679 20.048725 0.640418 0 25.000000 5.000000 28.0000
pair_coeff 77 93 twogauss -1.17776 12.281810 0.551904 0 25.000000 5.000000 28.0000
pair_coeff 77 94 twogauss -1.06947 13.721332 0.473463 0 25.000000 5.000000 28.0000
pair_coeff 77 95 twogauss -1.4206 22.636248 1.013141 0 25.000000 5.000000 28.0000
pair_coeff 78 82 twogauss 0.00442 23.225783 0.668205 -0.88485 24.962427 0.981349 28.0000
pair_coeff 78 83 twogauss -0.328185 21.329505 1.023761 0 25.000000 5.000000 28.0000
pair_coeff 78 93 twogauss -0.88842 20.223759 0.457412 -0.94571 21.206304 0.746547 28.0000
pair_coeff 78 103 twogauss -0.184195 23.064890 0.392082 -0.000255 24.372936 1.114546 28.0000
pair_coeff 79 81 twogauss 1.31418 22.363912 1.044752 0 25.000000 5.000000 28.0000
pair_coeff 79 82 twogauss 0.71213 23.525456 0.914155 0 25.000000 5.000000 28.0000
pair_coeff 79 98 twogauss -0.29988 20.778733 0.524064 1.67612 22.921820 1.524903 28.0000
pair_coeff 79 102 twogauss -0.886975 22.172029 0.421740 -0.85 23.505057 0.693048 28.0000
pair_coeff 79 103 twogauss -0.85 23.048075 0.797873 0 25.000000 5.000000 28.0000
pair_coeff 80 99 twogauss -1.28137 19.710185 0.741448 0 25.000000 5.000000 28.0000
pair_coeff 81 81 twogauss -0.359295 22.443175 0.349779 -0.359465 23.567475 1.320873 28.0000
pair_coeff 81 87 twogauss 1.47331 22.279679 0.955393 4.11043 26.946268 1.702800 28.0000
pair_coeff 81 91 twogauss -0.594405 23.044156 0.809267 -0.879665 24.846718 0.547785 28.0000
pair_coeff 81 98 twogauss -0.317985 19.784128 0.636169 -1.36952 17.865135 0.879141 28.0000
pair_coeff 81 99 twogauss -0.484755 9.863718 0.254344 -0.760325 11.648589 0.721498 28.0000
pair_coeff 81 100 twogauss -1.6456 23.290942 0.516294 -0.79458 25.224376 0.746076 28.0000
pair_coeff 81 101 twogauss -0.330055 22.805834 0.233739 -0.452115 24.288499 1.059686 28.0000
pair_coeff 82 97 twogauss -0.10353 23.281126 0.520581 -1.57106 24.864265 2.128226 28.0000
pair_coeff 82 98 twogauss -0.88893 14.668932 0.309523 -1.35957 17.497701 1.262083 28.0000
pair_coeff 82 103 twogauss 1.01966 18.228955 1.012682 1.00903 23.010989 0.794549 28.0000
pair_coeff 82 105 twogauss 0.823395 23.902219 0.817102 0.53346 25.434098 0.574076 28.0000
pair_coeff 83 104 twogauss -0.74511 21.711292 0.645007 -0.39797 23.578491 0.586292 28.0000
pair_coeff 83 106 twogauss 1.09216 18.729952 0.793267 0.072675 20.089487 0.495291 28.0000
pair_coeff 93 104 twogauss 0.045135 19.414597 0.231038 0.52819 19.955427 1.249738 28.0000
pair_coeff 93 106 twogauss -2.33061 13.120308 0.751995 0 25.000000 5.000000 28.0000
pair_coeff 93 108 twogauss 1.07882 22.038434 0.698215 0 25.000000 5.000000 28.0000
pair_coeff 94 104 twogauss -0.59823 23.156795 0.887915 -0.97614 27.155481 0.627858 28.0000
pair_coeff 94 106 twogauss -0.94537 16.488815 0.598326 0 25.000000 5.000000 28.0000
pair_coeff 94 107 twogauss -0.61166 15.419425 0.701673 0 25.000000 5.000000 28.0000
pair_coeff 94 108 twogauss -1.46633 17.034909 0.441102 0 25.000000 5.000000 28.0000
pair_coeff 94 109 twogauss -0.363375 16.617402 0.632887 -0.242505 17.718652 0.425830 28.0000
pair_coeff 95 107 twogauss -1.75882 14.314638 0.962949 0 25.000000 5.000000 28.0000
pair_coeff 95 108 twogauss -0.590835 20.970495 0.307314 6.617 23.484788 1.207296 28.0000
pair_coeff 95 109 twogauss -2.44902 14.665136 0.774771 0 25.000000 5.000000 28.0000
pair_coeff 98 103 twogauss 1.59094 21.592186 1.354089 -0.51238 28.000000 1.569716 28.0000
pair_coeff 99 101 twogauss -0.31297 22.726095 1.024231 -0.214115 23.760822 0.329055 28.0000
pair_coeff 99 102 twogauss 0.78302 19.733126 0.957680 0.2023 22.786179 0.723754 28.0000
pair_coeff 100 101 twogauss -1.89856 20.727036 0.817913 -0.683995 25.454538 0.729044 28.0000
pair_coeff 101 101 twogauss -0.99773 17.478993 0.657058 0 25.000000 5.000000 28.0000
pair_coeff 102 102 twogauss -1.25299 12.055183 0.564479 0 25.000000 5.000000 28.0000
pair_coeff 102 103 twogauss -1.29803 22.393417 0.169215 -0.85 25.114497 1.049051 28.0000
pair_coeff 103 103 twogauss -0.774945 13.585810 0.676389 0 25.000000 5.000000 28.0000
pair_coeff 103 104 twogauss -0.035955 20.557415 0.832412 0.397545 23.923172 1.013378 28.0000
pair_coeff 103 105 twogauss 1.20683 23.441072 0.899423 -0.407745 26.486209 0.666563 28.0000
pair_coeff 104 104 twogauss -1.77811 17.899679 0.786528 0 25.000000 5.000000 28.0000
pair_coeff 107 108 twogauss -1.09922 21.875799 0.883969 0 25.000000 5.000000 28.0000
pair_coeff 107 110 twogauss -1.65359 22.750828 1.204680 -1.9125 26.412043 1.537497 28.0000
pair_coeff 108 109 twogauss -1.51852 21.824676 0.887683 0 25.000000 5.000000 28.0000
pair_coeff 109 110 twogauss -0.865385 22.026556 1.195932 -1.4875 25.720717 1.674786 28.0000
pair_coeff  110  110  twogauss  -3.469150  12.566880  0.941713  -1.827150  12.642973  0.562195  28.0000
pair_coeff  111  111  twogauss  20.00000 25.0000 0.9000 -5.854300 12.506627 1.179487 28.0000
pair_coeff  111  112  twogauss  0.00000 25.0000 2.0000 -5.250000 17.659294 1.464376 28.0000
pair_coeff  112  112  twogauss  20.00000 25.0000 0.9000 -7.023300 11.111669 1.107631 28.0000
pair_coeff  113  113  twogauss  20.00000 25.0000 0.9000 -3.501900 11.169661 0.437666 28.0000
pair_coeff  114  114  twogauss  -1.346500  10.888567  0.337245  -1.034550  10.909430  0.343725  28.0000
pair_coeff  115  115  twogauss  -2.485800  11.229668  0.529935  -2.461500  11.360493  0.612099  28.0000
pair_coeff  116  116  twogauss  20.00000 25.0000 0.9000 0.0 25.0000 28.0000
pair_coeff  117  117  twogauss  20.00000 25.0000 0.9000 -5.770700 11.103605 1.003575 28.0000
pair_coeff  118  118  twogauss  20.00000 25.0000 0.9000 0.0 25.0000 28.0000
pair_coeff  119  119  twogauss  -4.363100  10.489175  1.283778  -1.438450  10.749129  0.647175  28.0000
pair_coeff  119  120  twogauss  20.00000 25.0000 0.9000 -5.906200 13.864390 1.284622 28.0000
pair_coeff  120  122  twogauss  -1.500000  8.686128  0.336293  -0.717350  11.043156  0.630337  28.0000

#ACE2
pair_coeff 144 147 twogauss -1.3351 11.122978 0.510063 -0.0000 25.000000 5.000000 25.0000
pair_coeff 172 192 twogauss -11.2000 18.206766 0.832011 -0.0000 25.000000 5.000000 25.0000
pair_coeff 190 191 twogauss -0.9860 10.875143 0.220669 -0.0000 25.000000 5.000000 25.0000
pair_coeff 190 192 twogauss -1.4123 14.083726 0.309440 -0.0000 25.000000 5.000000 25.0000
pair_coeff 190 193 twogauss -0.9548 16.724577 0.264669 -0.0000 25.000000 5.000000 25.0000
pair_coeff 190 196 twogauss -1.4303 18.627864 0.315931 -0.0000 25.000000 5.000000 25.0000
pair_coeff 191 191 twogauss -0.8416 15.682872 0.191393 -0.0000 25.000000 5.000000 25.0000
pair_coeff 191 193 twogauss -0.8037 16.678048 0.292727 -0.0000 25.000000 5.000000 25.0000
pair_coeff 193 193 twogauss -0.8813 15.887491 0.369242 -0.0000 25.000000 5.000000 25.0000
pair_coeff 196 196 twogauss -1.2936 17.575011 0.281876 -0.0000 25.000000 5.000000 25.0000
