variable TEMP           equal   300.0
variable PRESS 		equal   0.0

#variable SEED  		equal  	999
variable SEED2   	equal   $( v_SEED + 1099 )
variable SEED3  	equal   $( v_SEED + 80192 ) 
variable SEED4  	equal   $( v_SEED + 7102 )
variable SEED5 		equal   $( v_SEED + 30192 )

include "system.init"
read_data "eq.data"
include "system.settings"


comm_style tiled
comm_modify mode single cutoff 50.0

timestep  10.0 

compute 1 all pair srlr_gauss

fix 1  all    nve
fix 2  all    langevin ${TEMP} ${TEMP} 100000.0 ${SEED3} zero yes
fix b1 all balance 25000 1.05 rcb

fix 3  all    cluster_switch 1 0 20.0 ${SEED2} rateFreq 500000 rateFile rates.txt contactFile contacts.txt

thermo 50000
thermo_style  custom  step spcpu  temp  ke pe etotal  epair c_1 lx ly lz  pxx pyy pzz f_3[1] f_3[2] f_3[3] f_3[4] f_3[5] f_3[6] f_3[7]

dump 1 all atom 100000 dump.lammpstrj
dump_modify 1 sort id

run 1000

write_dump all atom eq.lammpstrj
write_data eq.data nocoeff

